##### Generated by aiida_castep 09:58:50 02/11/2023 GMT #####
#         author: Bonan Zhu (zhubonan@outlook.com)
# # AiiDA User: Alp Samli (asamli1998@gmail.com)
# AiiDA profile: alp
# Information of the calculation node
# label: 
# description:
# 
## Information of input nodes used:
# 
# type: uuid: 9f5cad54-4aa1-4b81-86fd-4d7b8fc06557 (pk: 157006)
# pk: 157006
# linkname: kpoints
# uuid: 9f5cad54-4aa1-4b81-86fd-4d7b8fc06557
# label: 
# description:
# 
# 
# type: uuid: 912bde69-2cc3-462b-8af2-c38326e20e87 (pk: 157008)
# pk: 157008
# linkname: parameters
# uuid: 912bde69-2cc3-462b-8af2-c38326e20e87
# label: 
# description:
# 
# 
# type: uuid: 127d4be8-b374-4c7a-a3d5-19ead5e1027d (pk: 157007)
# pk: 157007
# linkname: settings
# uuid: 127d4be8-b374-4c7a-a3d5-19ead5e1027d
# label: 
# description:
# 
# 
# type: uuid: c8f84600-8dda-4992-8ed9-2b63a7d0211d (pk: 156878)
# pk: 156878
# linkname: structure
# uuid: c8f84600-8dda-4992-8ed9-2b63a7d0211d
# label: 
# description:
# 
# 
# type: uuid: 731ebef7-8521-4b78-9cee-ba2607cd5d92 (pk: 852)
# pk: 852
# linkname: pseudo__Ti
# uuid: 731ebef7-8521-4b78-9cee-ba2607cd5d92
# label: C19
# description:
# 
# END OF HEADER
%BLOCK LATTICE_CART
      2.2884270000      -3.9636730000       0.0000000000
      2.2884270000       3.9636730000       0.0000000000
      0.0000000000       0.0000000000       2.8286830000
%ENDBLOCK LATTICE_CART
%BLOCK POSITIONS_ABS
Ti                       0.0000000000       0.0000000000       0.0000000000
Ti                       2.2884270000       1.3212269758       1.4143415000
Ti                       2.2884270000      -1.3212269758       1.4143415000
%ENDBLOCK POSITIONS_ABS
kpoints_mp_grid     : 5 5 6
symmetry_generate   : True
%BLOCK SPECIES_POT
Ti    C19
%ENDBLOCK SPECIES_POT