##### Generated by aiida_castep 10:59:20 03/02/2022 GMT #####
#         author: Bonan Zhu (bz240@cam.ac.uk)
# # AiiDA User: Alp Samli (asamli1998@gmail.com)
# AiiDA profile: alp
# Information of the calculation node
# label: 
# description:
# 
## Information of input nodes used:
# 
# type: uuid: f4078776-cc80-4293-b7eb-40931c48cb54 (pk: 9893)
# pk: 9893
# linkname: kpoints
# uuid: f4078776-cc80-4293-b7eb-40931c48cb54
# label: 
# description:
# 
# 
# type: uuid: b60ee194-b54d-4863-9c58-c18238d0cf33 (pk: 9895)
# pk: 9895
# linkname: parameters
# uuid: b60ee194-b54d-4863-9c58-c18238d0cf33
# label: 
# description:
# 
# 
# type: uuid: 9c692846-2a4a-445e-a6e6-d0ee6d704112 (pk: 9894)
# pk: 9894
# linkname: settings
# uuid: 9c692846-2a4a-445e-a6e6-d0ee6d704112
# label: 
# description:
# 
# 
# type: uuid: e997cdba-ee76-4e0e-81ea-a833b8c4ef2f (pk: 9760)
# pk: 9760
# linkname: structure
# uuid: e997cdba-ee76-4e0e-81ea-a833b8c4ef2f
# label: 
# description:
# 
# 
# type: uuid: 731ebef7-8521-4b78-9cee-ba2607cd5d92 (pk: 852)
# pk: 852
# linkname: pseudo__Si
# uuid: 731ebef7-8521-4b78-9cee-ba2607cd5d92
# label: C19
# description:
# 
# END OF HEADER
%BLOCK LATTICE_CART
      0.0000000000       2.7150000000       2.7150000000
      2.7150000000       0.0000000000       2.7150000000
      2.7150000000       2.7150000000       0.0000000000
%ENDBLOCK LATTICE_CART
%BLOCK POSITIONS_ABS
Si                       0.0000000000       0.0000000000       0.0000000000
Si                       1.3575000000       1.3575000000       1.3575000000
%ENDBLOCK POSITIONS_ABS
kpoints_mp_grid     : 5 5 5
symmetry_generate   : True
%BLOCK SPECIES_POT
Si    C19
%ENDBLOCK SPECIES_POT
