##### Generated by aiida_castep 16:34:26 14/03/2022 GMT #####
#         author: Bonan Zhu (bz240@cam.ac.uk)
# # AiiDA User: Alp Samli (asamli1998@gmail.com)
# AiiDA profile: alp
# Information of the calculation node
# label: 
# description:
# 
## Information of input nodes used:
# 
# type: uuid: 3da5e3b9-bd96-4f98-849f-e1cd79ffaf25 (pk: 17900)
# pk: 17900
# linkname: kpoints
# uuid: 3da5e3b9-bd96-4f98-849f-e1cd79ffaf25
# label: 
# description:
# 
# 
# type: uuid: b7e5a9b3-d625-45cb-ac80-17b99fe33067 (pk: 17902)
# pk: 17902
# linkname: parameters
# uuid: b7e5a9b3-d625-45cb-ac80-17b99fe33067
# label: 
# description:
# 
# 
# type: uuid: 925139e4-2c65-48d4-8834-dce07d531681 (pk: 17901)
# pk: 17901
# linkname: settings
# uuid: 925139e4-2c65-48d4-8834-dce07d531681
# label: 
# description:
# 
# 
# type: uuid: 94464b3b-ba45-4e8c-95db-354227f1bc41 (pk: 17764)
# pk: 17764
# linkname: structure
# uuid: 94464b3b-ba45-4e8c-95db-354227f1bc41
# label: 
# description:
# 
# 
# type: uuid: 731ebef7-8521-4b78-9cee-ba2607cd5d92 (pk: 852)
# pk: 852
# linkname: pseudo__Si
# uuid: 731ebef7-8521-4b78-9cee-ba2607cd5d92
# label: C19
# description:
# 
# END OF HEADER
%BLOCK LATTICE_CART
      0.0000000000       2.7150000000       2.7150000000
      2.7150000000       0.0000000000       2.7150000000
      2.7150000000       2.7150000000       0.0000000000
%ENDBLOCK LATTICE_CART
%BLOCK POSITIONS_ABS
Si                       0.0000000000       0.0000000000       0.0000000000
Si                       1.3575000000       1.3575000000       1.3575000000
%ENDBLOCK POSITIONS_ABS
kpoints_mp_grid     : 5 5 5
symmetry_generate   : True
%BLOCK SPECIES_POT
Si    C19
%ENDBLOCK SPECIES_POT
