##### Generated by aiida_castep 07:07:32 26/08/2022 BST #####
#         author: Bonan Zhu (zhubonan@outlook.com)
# # AiiDA User: Alp Samli (asamli1998@gmail.com)
# AiiDA profile: alp
# Information of the calculation node
# label: 
# description:
# 
## Information of input nodes used:
# 
# type: uuid: 71a72ce9-4953-4f6d-89bb-da8b3de21c7e (pk: 37020)
# pk: 37020
# linkname: kpoints
# uuid: 71a72ce9-4953-4f6d-89bb-da8b3de21c7e
# label: 
# description:
# 
# 
# type: uuid: 31845b73-4c49-41a7-b218-785403124b46 (pk: 37022)
# pk: 37022
# linkname: parameters
# uuid: 31845b73-4c49-41a7-b218-785403124b46
# label: 
# description:
# 
# 
# type: uuid: c0e4b37e-bc38-4959-9eee-676ef3f46616 (pk: 37021)
# pk: 37021
# linkname: settings
# uuid: c0e4b37e-bc38-4959-9eee-676ef3f46616
# label: 
# description:
# 
# 
# type: uuid: a67fa391-2cf7-4428-8dc2-93897d1e150b (pk: 37006)
# pk: 37006
# linkname: structure
# uuid: a67fa391-2cf7-4428-8dc2-93897d1e150b
# label: 
# description:
# 
# 
# type: uuid: 731ebef7-8521-4b78-9cee-ba2607cd5d92 (pk: 852)
# pk: 852
# linkname: pseudo__O
# uuid: 731ebef7-8521-4b78-9cee-ba2607cd5d92
# label: C19
# description:
# 
# 
# type: uuid: 731ebef7-8521-4b78-9cee-ba2607cd5d92 (pk: 852)
# pk: 852
# linkname: pseudo__Ti
# uuid: 731ebef7-8521-4b78-9cee-ba2607cd5d92
# label: C19
# description:
# 
# END OF HEADER
%BLOCK LATTICE_CART
      4.5941000000       0.0000000000       0.0000000000
      0.0000000000       4.5941000000       0.0000000000
      0.0000000000       0.0000000000       2.9589000000
%ENDBLOCK LATTICE_CART
%BLOCK POSITIONS_ABS
Ti                       0.0000000000       0.0000000000       0.0000000000
Ti                       2.2970500000       2.2970500000       1.4794500000
O                        1.4044163700       1.4044163700       0.0000000000
O                        3.7014663700       0.8926336300       1.4794500000
O                        0.8926336300       3.7014663700       1.4794500000
O                        3.1896836300       3.1896836300       0.0000000000
%ENDBLOCK POSITIONS_ABS
kpoints_mp_grid     : 3 3 5
symmetry_generate   : True
%BLOCK SPECIES_POT
Ti    C19
O     C19
%ENDBLOCK SPECIES_POT