##### Generated by aiida_castep 10:58:51 03/02/2022 GMT #####
#         author: Bonan Zhu (bz240@cam.ac.uk)
# # AiiDA User: Alp Samli (asamli1998@gmail.com)
# AiiDA profile: alp
# Information of the calculation node
# label: 
# description:
# 
## Information of input nodes used:
# 
# type: uuid: e1dade42-df2c-4875-aa42-bbef571a234b (pk: 9810)
# pk: 9810
# linkname: kpoints
# uuid: e1dade42-df2c-4875-aa42-bbef571a234b
# label: 
# description:
# 
# 
# type: uuid: 1c0eeafe-87bc-460d-a5c2-9058f31f0153 (pk: 9812)
# pk: 9812
# linkname: parameters
# uuid: 1c0eeafe-87bc-460d-a5c2-9058f31f0153
# label: 
# description:
# 
# 
# type: uuid: f145ce8e-2369-4582-992c-56d39493df01 (pk: 9811)
# pk: 9811
# linkname: settings
# uuid: f145ce8e-2369-4582-992c-56d39493df01
# label: 
# description:
# 
# 
# type: uuid: e997cdba-ee76-4e0e-81ea-a833b8c4ef2f (pk: 9760)
# pk: 9760
# linkname: structure
# uuid: e997cdba-ee76-4e0e-81ea-a833b8c4ef2f
# label: 
# description:
# 
# 
# type: uuid: 731ebef7-8521-4b78-9cee-ba2607cd5d92 (pk: 852)
# pk: 852
# linkname: pseudo__Si
# uuid: 731ebef7-8521-4b78-9cee-ba2607cd5d92
# label: C19
# description:
# 
# END OF HEADER
%BLOCK LATTICE_CART
      0.0000000000       2.7150000000       2.7150000000
      2.7150000000       0.0000000000       2.7150000000
      2.7150000000       2.7150000000       0.0000000000
%ENDBLOCK LATTICE_CART
%BLOCK POSITIONS_ABS
Si                       0.0000000000       0.0000000000       0.0000000000
Si                       1.3575000000       1.3575000000       1.3575000000
%ENDBLOCK POSITIONS_ABS
kpoints_mp_grid     : 4 4 4
symmetry_generate   : True
%BLOCK SPECIES_POT
Si    C19
%ENDBLOCK SPECIES_POT
