##### Generated by aiida_castep 15:43:41 20/01/2022 GMT #####
#         author: Bonan Zhu (bz240@cam.ac.uk)
# # AiiDA User: Alp Samli (asamli1998@gmail.com)
# AiiDA profile: alp
# Information of the calculation node
# label: 
# description:
# 
## Information of input nodes used:
# 
# type: uuid: b7d9748f-e42e-44ba-a1a8-70a25452b6ff (pk: 6266)
# pk: 6266
# linkname: structure
# uuid: b7d9748f-e42e-44ba-a1a8-70a25452b6ff
# label: 
# description:
# 
# 
# type: uuid: f27ca0fe-223f-4dc6-a1da-552c23c792fa (pk: 6309)
# pk: 6309
# linkname: settings
# uuid: f27ca0fe-223f-4dc6-a1da-552c23c792fa
# label: 
# description:
# 
# 
# type: uuid: a99ffc19-0fdb-42f8-bbb6-bdb46864da89 (pk: 6310)
# pk: 6310
# linkname: parameters
# uuid: a99ffc19-0fdb-42f8-bbb6-bdb46864da89
# label: 
# description:
# 
# 
# type: uuid: f0552f7a-0670-45d8-84a7-9e6fdb69da58 (pk: 6308)
# pk: 6308
# linkname: kpoints
# uuid: f0552f7a-0670-45d8-84a7-9e6fdb69da58
# label: 
# description:
# 
# 
# type: uuid: 731ebef7-8521-4b78-9cee-ba2607cd5d92 (pk: 852)
# pk: 852
# linkname: pseudo__Si
# uuid: 731ebef7-8521-4b78-9cee-ba2607cd5d92
# label: C19
# description:
# 
# END OF HEADER
%BLOCK LATTICE_CART
      0.0000000000       2.7150000000       2.7150000000
      2.7150000000       0.0000000000       2.7150000000
      2.7150000000       2.7150000000       0.0000000000
%ENDBLOCK LATTICE_CART
%BLOCK POSITIONS_ABS
Si                       0.0000000000       0.0000000000       0.0000000000
Si                       1.3575000000       1.3575000000       1.3575000000
%ENDBLOCK POSITIONS_ABS
kpoints_mp_grid     : 4 4 4
symmetry_generate   : True
%BLOCK SPECIES_POT
Si    C19
%ENDBLOCK SPECIES_POT
