##### Generated by aiida_castep 16:03:52 23/02/2022 GMT #####
#         author: Bonan Zhu (bz240@cam.ac.uk)
# # AiiDA User: Alp Samli (asamli1998@gmail.com)
# AiiDA profile: alp
# Information of the calculation node
# label: 
# description:
# 
## Information of input nodes used:
# 
# type: uuid: 00ffe3d3-0b42-4455-9937-a85d79d7e5f2 (pk: 14023)
# pk: 14023
# linkname: kpoints
# uuid: 00ffe3d3-0b42-4455-9937-a85d79d7e5f2
# label: 
# description:
# 
# 
# type: uuid: 075d89fb-1a7e-4af4-b0db-502cf8365fd8 (pk: 14025)
# pk: 14025
# linkname: parameters
# uuid: 075d89fb-1a7e-4af4-b0db-502cf8365fd8
# label: 
# description:
# 
# 
# type: uuid: 74c964a1-2357-4c13-9075-a745b1f8d14b (pk: 14024)
# pk: 14024
# linkname: settings
# uuid: 74c964a1-2357-4c13-9075-a745b1f8d14b
# label: 
# description:
# 
# 
# type: uuid: 9dacdc07-1379-4acf-adae-d5eff25e026b (pk: 13913)
# pk: 13913
# linkname: structure
# uuid: 9dacdc07-1379-4acf-adae-d5eff25e026b
# label: 
# description:
# 
# 
# type: uuid: 731ebef7-8521-4b78-9cee-ba2607cd5d92 (pk: 852)
# pk: 852
# linkname: pseudo__Si
# uuid: 731ebef7-8521-4b78-9cee-ba2607cd5d92
# label: C19
# description:
# 
# END OF HEADER
%BLOCK LATTICE_CART
      0.0000000000       2.7150000000       2.7150000000
      2.7150000000       0.0000000000       2.7150000000
      2.7150000000       2.7150000000       0.0000000000
%ENDBLOCK LATTICE_CART
%BLOCK POSITIONS_ABS
Si                       0.0000000000       0.0000000000       0.0000000000
Si                       1.3575000000       1.3575000000       1.3575000000
%ENDBLOCK POSITIONS_ABS
kpoints_mp_grid     : 11 11 11
symmetry_generate   : True
%BLOCK SPECIES_POT
Si    C19
%ENDBLOCK SPECIES_POT
