##### Generated by aiida_castep 16:34:53 14/03/2022 GMT #####
#         author: Bonan Zhu (bz240@cam.ac.uk)
# # AiiDA User: Alp Samli (asamli1998@gmail.com)
# AiiDA profile: alp
# Information of the calculation node
# label: 
# description:
# 
## Information of input nodes used:
# 
# type: uuid: 569eed68-5601-46fd-b268-f29ec869d09a (pk: 17959)
# pk: 17959
# linkname: kpoints
# uuid: 569eed68-5601-46fd-b268-f29ec869d09a
# label: 
# description:
# 
# 
# type: uuid: 45e277f7-eaa6-4525-8b71-8b3edaf492f5 (pk: 17961)
# pk: 17961
# linkname: parameters
# uuid: 45e277f7-eaa6-4525-8b71-8b3edaf492f5
# label: 
# description:
# 
# 
# type: uuid: b758bf61-cc52-448c-a4e8-dce817b14fe5 (pk: 17960)
# pk: 17960
# linkname: settings
# uuid: b758bf61-cc52-448c-a4e8-dce817b14fe5
# label: 
# description:
# 
# 
# type: uuid: 94464b3b-ba45-4e8c-95db-354227f1bc41 (pk: 17764)
# pk: 17764
# linkname: structure
# uuid: 94464b3b-ba45-4e8c-95db-354227f1bc41
# label: 
# description:
# 
# 
# type: uuid: 731ebef7-8521-4b78-9cee-ba2607cd5d92 (pk: 852)
# pk: 852
# linkname: pseudo__Si
# uuid: 731ebef7-8521-4b78-9cee-ba2607cd5d92
# label: C19
# description:
# 
# END OF HEADER
%BLOCK LATTICE_CART
      0.0000000000       2.7150000000       2.7150000000
      2.7150000000       0.0000000000       2.7150000000
      2.7150000000       2.7150000000       0.0000000000
%ENDBLOCK LATTICE_CART
%BLOCK POSITIONS_ABS
Si                       0.0000000000       0.0000000000       0.0000000000
Si                       1.3575000000       1.3575000000       1.3575000000
%ENDBLOCK POSITIONS_ABS
kpoints_mp_grid     : 11 11 11
symmetry_generate   : True
%BLOCK SPECIES_POT
Si    C19
%ENDBLOCK SPECIES_POT
