##### Generated by aiida_castep 16:11:39 28/02/2022 GMT #####
#         author: Bonan Zhu (bz240@cam.ac.uk)
# # AiiDA User: Alp Samli (asamli1998@gmail.com)
# AiiDA profile: alp
# Information of the calculation node
# label: 
# description:
# 
## Information of input nodes used:
# 
# type: uuid: a99da224-31b7-4be9-a265-ebd6b69363e9 (pk: 15975)
# pk: 15975
# linkname: kpoints
# uuid: a99da224-31b7-4be9-a265-ebd6b69363e9
# label: 
# description:
# 
# 
# type: uuid: cfe2109f-f4af-4061-963a-d65f0e2e5f4e (pk: 15977)
# pk: 15977
# linkname: parameters
# uuid: cfe2109f-f4af-4061-963a-d65f0e2e5f4e
# label: 
# description:
# 
# 
# type: uuid: 3bb34244-81cc-44be-a305-7c1f6b762041 (pk: 15976)
# pk: 15976
# linkname: settings
# uuid: 3bb34244-81cc-44be-a305-7c1f6b762041
# label: 
# description:
# 
# 
# type: uuid: f4efd56d-5b48-42ad-a55f-3b988e0b5e26 (pk: 15780)
# pk: 15780
# linkname: structure
# uuid: f4efd56d-5b48-42ad-a55f-3b988e0b5e26
# label: 
# description:
# 
# 
# type: uuid: 731ebef7-8521-4b78-9cee-ba2607cd5d92 (pk: 852)
# pk: 852
# linkname: pseudo__Si
# uuid: 731ebef7-8521-4b78-9cee-ba2607cd5d92
# label: C19
# description:
# 
# END OF HEADER
%BLOCK LATTICE_CART
      0.0000000000       2.7150000000       2.7150000000
      2.7150000000       0.0000000000       2.7150000000
      2.7150000000       2.7150000000       0.0000000000
%ENDBLOCK LATTICE_CART
%BLOCK POSITIONS_ABS
Si                       0.0000000000       0.0000000000       0.0000000000
Si                       1.3575000000       1.3575000000       1.3575000000
%ENDBLOCK POSITIONS_ABS
kpoints_mp_grid     : 11 11 11
symmetry_generate   : True
%BLOCK SPECIES_POT
Si    C19
%ENDBLOCK SPECIES_POT
