##### Generated by aiida_castep 09:59:37 02/11/2023 GMT #####
#         author: Bonan Zhu (zhubonan@outlook.com)
# # AiiDA User: Alp Samli (asamli1998@gmail.com)
# AiiDA profile: alp
# Information of the calculation node
# label: 
# description:
# 
## Information of input nodes used:
# 
# type: uuid: f9507324-a750-40f5-ab9b-d8ddcaeb5742 (pk: 157070)
# pk: 157070
# linkname: kpoints
# uuid: f9507324-a750-40f5-ab9b-d8ddcaeb5742
# label: 
# description:
# 
# 
# type: uuid: 9d8ef850-b0b0-408a-a359-baa9edb8e43a (pk: 157072)
# pk: 157072
# linkname: parameters
# uuid: 9d8ef850-b0b0-408a-a359-baa9edb8e43a
# label: 
# description:
# 
# 
# type: uuid: ee7f0097-0f2c-4ac4-9d3b-7b8b249c172e (pk: 157071)
# pk: 157071
# linkname: settings
# uuid: ee7f0097-0f2c-4ac4-9d3b-7b8b249c172e
# label: 
# description:
# 
# 
# type: uuid: 8356a889-e237-4127-8fb2-65b279fd1dde (pk: 156881)
# pk: 156881
# linkname: structure
# uuid: 8356a889-e237-4127-8fb2-65b279fd1dde
# label: 
# description:
# 
# 
# type: uuid: 731ebef7-8521-4b78-9cee-ba2607cd5d92 (pk: 852)
# pk: 852
# linkname: pseudo__Zr
# uuid: 731ebef7-8521-4b78-9cee-ba2607cd5d92
# label: C19
# description:
# 
# END OF HEADER
%BLOCK LATTICE_CART
      1.6196160000      -2.8052570000       0.0000000000
      1.6196160000       2.8052570000       0.0000000000
      0.0000000000       0.0000000000       5.1722200000
%ENDBLOCK LATTICE_CART
%BLOCK POSITIONS_ABS
Zr                       1.6196160000       0.9350875368       1.2930550000
Zr                       1.6196160000      -0.9350875368       3.8791650000
%ENDBLOCK POSITIONS_ABS
kpoints_mp_grid     : 5 5 3
symmetry_generate   : True
%BLOCK SPECIES_POT
Zr    C19
%ENDBLOCK SPECIES_POT