##### Generated by aiida_castep 16:04:57 29/03/2023 BST #####
#         author: Bonan Zhu (zhubonan@outlook.com)
# # AiiDA User: Alp Samli (asamli1998@gmail.com)
# AiiDA profile: alp
# Information of the calculation node
# label: 
# description:
# 
## Information of input nodes used:
# 
# type: uuid: 42b16a36-02f3-4dc4-bb77-e1bd0786002d (pk: 106342)
# pk: 106342
# linkname: kpoints
# uuid: 42b16a36-02f3-4dc4-bb77-e1bd0786002d
# label: 
# description:
# 
# 
# type: uuid: 42e5dc14-8dab-4bdc-a0af-428fdbd636f0 (pk: 106344)
# pk: 106344
# linkname: parameters
# uuid: 42e5dc14-8dab-4bdc-a0af-428fdbd636f0
# label: 
# description:
# 
# 
# type: uuid: eb0ae8e5-7667-4f2e-8c3e-4aeb38abcc0b (pk: 106343)
# pk: 106343
# linkname: settings
# uuid: eb0ae8e5-7667-4f2e-8c3e-4aeb38abcc0b
# label: 
# description:
# 
# 
# type: uuid: 12fc8211-46f6-45ef-8b8c-cb930c964cef (pk: 106333)
# pk: 106333
# linkname: structure
# uuid: 12fc8211-46f6-45ef-8b8c-cb930c964cef
# label: 
# description:
# 
# 
# type: uuid: 731ebef7-8521-4b78-9cee-ba2607cd5d92 (pk: 852)
# pk: 852
# linkname: pseudo__Si
# uuid: 731ebef7-8521-4b78-9cee-ba2607cd5d92
# label: C19
# description:
# 
# END OF HEADER
%BLOCK LATTICE_CART
      0.0000000000       2.7150000000       2.7150000000
      2.7150000000       0.0000000000       2.7150000000
      2.7150000000       2.7150000000       0.0000000000
%ENDBLOCK LATTICE_CART
%BLOCK POSITIONS_ABS
Si                       0.0000000000       0.0000000000       0.0000000000
Si                       1.3575000000       1.3575000000       1.3575000000
%ENDBLOCK POSITIONS_ABS
kpoints_mp_grid     : 8 8 8
symmetry_generate   : True
%BLOCK SPECIES_POT
Si    C19
%ENDBLOCK SPECIES_POT