##### Generated by aiida_castep 09:59:40 02/11/2023 GMT #####
#         author: Bonan Zhu (zhubonan@outlook.com)
# # AiiDA User: Alp Samli (asamli1998@gmail.com)
# AiiDA profile: alp
# Information of the calculation node
# label: 
# description:
# 
## Information of input nodes used:
# 
# type: uuid: 6871e4e8-3011-404b-aa4e-9d98fb05697d (pk: 157074)
# pk: 157074
# linkname: kpoints
# uuid: 6871e4e8-3011-404b-aa4e-9d98fb05697d
# label: 
# description:
# 
# 
# type: uuid: 2ad36111-846b-45fb-857c-bd99ad7db107 (pk: 157076)
# pk: 157076
# linkname: parameters
# uuid: 2ad36111-846b-45fb-857c-bd99ad7db107
# label: 
# description:
# 
# 
# type: uuid: 21107aa7-9c0b-406a-b91e-0e0f286695f9 (pk: 157075)
# pk: 157075
# linkname: settings
# uuid: 21107aa7-9c0b-406a-b91e-0e0f286695f9
# label: 
# description:
# 
# 
# type: uuid: 8356a889-e237-4127-8fb2-65b279fd1dde (pk: 156881)
# pk: 156881
# linkname: structure
# uuid: 8356a889-e237-4127-8fb2-65b279fd1dde
# label: 
# description:
# 
# 
# type: uuid: 731ebef7-8521-4b78-9cee-ba2607cd5d92 (pk: 852)
# pk: 852
# linkname: pseudo__Zr
# uuid: 731ebef7-8521-4b78-9cee-ba2607cd5d92
# label: C19
# description:
# 
# END OF HEADER
%BLOCK LATTICE_CART
      1.6196160000      -2.8052570000       0.0000000000
      1.6196160000       2.8052570000       0.0000000000
      0.0000000000       0.0000000000       5.1722200000
%ENDBLOCK LATTICE_CART
%BLOCK POSITIONS_ABS
Zr                       1.6196160000       0.9350875368       1.2930550000
Zr                       1.6196160000      -0.9350875368       3.8791650000
%ENDBLOCK POSITIONS_ABS
kpoints_mp_grid     : 6 6 3
symmetry_generate   : True
%BLOCK SPECIES_POT
Zr    C19
%ENDBLOCK SPECIES_POT