##### Generated by aiida_castep 07:07:34 26/08/2022 BST #####
#         author: Bonan Zhu (zhubonan@outlook.com)
# # AiiDA User: Alp Samli (asamli1998@gmail.com)
# AiiDA profile: alp
# Information of the calculation node
# label: 
# description:
# 
## Information of input nodes used:
# 
# type: uuid: 946152b0-0971-4cca-8355-e1157b87a34b (pk: 37024)
# pk: 37024
# linkname: kpoints
# uuid: 946152b0-0971-4cca-8355-e1157b87a34b
# label: 
# description:
# 
# 
# type: uuid: c1305c8b-01aa-4168-a986-8dc421cbe160 (pk: 37026)
# pk: 37026
# linkname: parameters
# uuid: c1305c8b-01aa-4168-a986-8dc421cbe160
# label: 
# description:
# 
# 
# type: uuid: 5471ad52-49cd-49e0-b74e-5123d90bd408 (pk: 37025)
# pk: 37025
# linkname: settings
# uuid: 5471ad52-49cd-49e0-b74e-5123d90bd408
# label: 
# description:
# 
# 
# type: uuid: f48e6406-a7a2-4e95-b3a0-79a586cde6f9 (pk: 37007)
# pk: 37007
# linkname: structure
# uuid: f48e6406-a7a2-4e95-b3a0-79a586cde6f9
# label: 
# description:
# 
# 
# type: uuid: 731ebef7-8521-4b78-9cee-ba2607cd5d92 (pk: 852)
# pk: 852
# linkname: pseudo__O
# uuid: 731ebef7-8521-4b78-9cee-ba2607cd5d92
# label: C19
# description:
# 
# 
# type: uuid: 731ebef7-8521-4b78-9cee-ba2607cd5d92 (pk: 852)
# pk: 852
# linkname: pseudo__Ti
# uuid: 731ebef7-8521-4b78-9cee-ba2607cd5d92
# label: C19
# description:
# 
# 
# type: uuid: 731ebef7-8521-4b78-9cee-ba2607cd5d92 (pk: 852)
# pk: 852
# linkname: pseudo__Zr
# uuid: 731ebef7-8521-4b78-9cee-ba2607cd5d92
# label: C19
# description:
# 
# END OF HEADER
%BLOCK LATTICE_CART
      4.5941000000       0.0000000000       0.0000000000
      0.0000000000       4.5941000000       0.0000000000
      0.0000000000       0.0000000000       2.9589000000
%ENDBLOCK LATTICE_CART
%BLOCK POSITIONS_ABS
Zr                       0.0000000000       0.0000000000       0.0000000000
Ti                       2.2970500000       2.2970500000       1.4794500000
O                        1.4044163700       1.4044163700       0.0000000000
O                        3.7014663700       0.8926336300       1.4794500000
O                        0.8926336300       3.7014663700       1.4794500000
O                        3.1896836300       3.1896836300       0.0000000000
%ENDBLOCK POSITIONS_ABS
kpoints_mp_grid     : 3 3 5
symmetry_generate   : True
%BLOCK SPECIES_POT
Zr    C19
Ti    C19
O     C19
%ENDBLOCK SPECIES_POT