##### Generated by aiida_castep 17:39:12 22/03/2022 GMT #####
#         author: Bonan Zhu (bz240@cam.ac.uk)
# # AiiDA User: Alp Samli (asamli1998@gmail.com)
# AiiDA profile: alp
# Information of the calculation node
# label: 
# description:
# 
## Information of input nodes used:
# 
# type: uuid: bd6384e1-fd15-4481-9adb-02bc2f4df321 (pk: 20600)
# pk: 20600
# linkname: kpoints
# uuid: bd6384e1-fd15-4481-9adb-02bc2f4df321
# label: 
# description:
# 
# 
# type: uuid: 27f71b77-ea36-42df-8b01-04876dcfbbde (pk: 20668)
# pk: 20668
# linkname: parameters
# uuid: 27f71b77-ea36-42df-8b01-04876dcfbbde
# label: 
# description:
# 
# 
# type: uuid: 58cc422f-f602-4d72-838c-ae4ae6fbd60e (pk: 20667)
# pk: 20667
# linkname: settings
# uuid: 58cc422f-f602-4d72-838c-ae4ae6fbd60e
# label: 
# description:
# 
# 
# type: uuid: 9c1aed89-cb87-4ff9-946b-bc2b2998bec1 (pk: 20543)
# pk: 20543
# linkname: structure
# uuid: 9c1aed89-cb87-4ff9-946b-bc2b2998bec1
# label: 
# description:
# 
# 
# type: uuid: 731ebef7-8521-4b78-9cee-ba2607cd5d92 (pk: 852)
# pk: 852
# linkname: pseudo__Fe
# uuid: 731ebef7-8521-4b78-9cee-ba2607cd5d92
# label: C19
# description:
# 
# END OF HEADER
%BLOCK LATTICE_CART
     -1.4300000000       1.4300000000       1.4300000000
      1.4300000000      -1.4300000000       1.4300000000
      5.7200000000       5.7200000000       0.0000000000
%ENDBLOCK LATTICE_CART
%BLOCK POSITIONS_ABS
Fe                       0.0000000000       0.0000000000       0.0000000000 SPIN=5.000 
Fe                       1.4300000000       1.4300000000       1.4300000000 SPIN=5.000 
Fe                       2.8600000000       2.8600000000       0.0000000000 SPIN=-5.000 
Fe                       4.2900000000       4.2900000000       1.4300000000 SPIN=-5.000 
%ENDBLOCK POSITIONS_ABS
kpoints_mp_grid     : 15 15 5
symmetry_generate   : True
%BLOCK SPECIES_POT
Fe    C19
%ENDBLOCK SPECIES_POT
