##### Generated by aiida_castep 15:27:54 02/11/2023 GMT #####
#         author: Bonan Zhu (zhubonan@outlook.com)
# # AiiDA User: Alp Samli (asamli1998@gmail.com)
# AiiDA profile: alp
# Information of the calculation node
# label: 
# description:
# 
## Information of input nodes used:
# 
# type: uuid: dcbe12b5-af5a-475b-a289-41804c49d612 (pk: 157328)
# pk: 157328
# linkname: kpoints
# uuid: dcbe12b5-af5a-475b-a289-41804c49d612
# label: 
# description:
# 
# 
# type: uuid: de92f24c-5416-4ef7-a9fb-a32f2a49079f (pk: 157367)
# pk: 157367
# linkname: parameters
# uuid: de92f24c-5416-4ef7-a9fb-a32f2a49079f
# label: 
# description:
# 
# 
# type: uuid: 9868b3d5-c8cd-4b74-bd76-e61d8e4c4e76 (pk: 157366)
# pk: 157366
# linkname: settings
# uuid: 9868b3d5-c8cd-4b74-bd76-e61d8e4c4e76
# label: 
# description:
# 
# 
# type: uuid: ae58dff0-3120-4433-b698-74c30cc83aec (pk: 156882)
# pk: 156882
# linkname: structure
# uuid: ae58dff0-3120-4433-b698-74c30cc83aec
# label: 
# description:
# 
# 
# type: uuid: 731ebef7-8521-4b78-9cee-ba2607cd5d92 (pk: 852)
# pk: 852
# linkname: pseudo__O
# uuid: 731ebef7-8521-4b78-9cee-ba2607cd5d92
# label: C19
# description:
# 
# 
# type: uuid: 731ebef7-8521-4b78-9cee-ba2607cd5d92 (pk: 852)
# pk: 852
# linkname: pseudo__Zr
# uuid: 731ebef7-8521-4b78-9cee-ba2607cd5d92
# label: C19
# description:
# 
# END OF HEADER
%BLOCK LATTICE_CART
      5.2684600000       0.0000000000       0.0000000000
      0.0000000000       5.2336490000       0.0000000000
      0.0000000000       0.9460160000       5.3352540000
%ENDBLOCK LATTICE_CART
%BLOCK POSITIONS_ABS
Zr                       0.2327605628       2.1914981446       4.2134848350
Zr                       2.4014694372       1.7184901446       1.5458578350
Zr                       2.8669905628       4.4611748554       3.7893961650
Zr                       5.0356994372       3.9881668554       1.1217691650
O                        4.3191994141       5.7227954781       4.5595774267
O                        3.5834905859       5.2497874781       1.8919504267
O                        3.9214517580       2.3915424675       0.1170341317
O                        1.2872217580       3.3151145325       2.5505928683
O                        3.9812382420       2.8645504675       2.7846611317
O                        1.3470082420       3.7881225325       5.2182198683
O                        1.6849694141       0.9298775219       3.4433035733
O                        0.9492605859       0.4568695219       0.7756765733
%ENDBLOCK POSITIONS_ABS
kpoints_mp_grid     : 1 1 1
symmetry_generate   : True
%BLOCK SPECIES_POT
Zr    C19
O     C19
%ENDBLOCK SPECIES_POT