##### Generated by aiida_castep 10:58:51 03/02/2022 GMT #####
#         author: Bonan Zhu (bz240@cam.ac.uk)
# # AiiDA User: Alp Samli (asamli1998@gmail.com)
# AiiDA profile: alp
# Information of the calculation node
# label: 
# description:
# 
## Information of input nodes used:
# 
# type: uuid: 8a169171-b5f9-4f7a-a6e2-1e20535a8c2b (pk: 9814)
# pk: 9814
# linkname: kpoints
# uuid: 8a169171-b5f9-4f7a-a6e2-1e20535a8c2b
# label: 
# description:
# 
# 
# type: uuid: 852f95fc-0649-4d42-8267-3660b985ce83 (pk: 9816)
# pk: 9816
# linkname: parameters
# uuid: 852f95fc-0649-4d42-8267-3660b985ce83
# label: 
# description:
# 
# 
# type: uuid: f11f721a-c294-42e7-8947-2b4930a632c0 (pk: 9815)
# pk: 9815
# linkname: settings
# uuid: f11f721a-c294-42e7-8947-2b4930a632c0
# label: 
# description:
# 
# 
# type: uuid: e997cdba-ee76-4e0e-81ea-a833b8c4ef2f (pk: 9760)
# pk: 9760
# linkname: structure
# uuid: e997cdba-ee76-4e0e-81ea-a833b8c4ef2f
# label: 
# description:
# 
# 
# type: uuid: 731ebef7-8521-4b78-9cee-ba2607cd5d92 (pk: 852)
# pk: 852
# linkname: pseudo__Si
# uuid: 731ebef7-8521-4b78-9cee-ba2607cd5d92
# label: C19
# description:
# 
# END OF HEADER
%BLOCK LATTICE_CART
      0.0000000000       2.7150000000       2.7150000000
      2.7150000000       0.0000000000       2.7150000000
      2.7150000000       2.7150000000       0.0000000000
%ENDBLOCK LATTICE_CART
%BLOCK POSITIONS_ABS
Si                       0.0000000000       0.0000000000       0.0000000000
Si                       1.3575000000       1.3575000000       1.3575000000
%ENDBLOCK POSITIONS_ABS
kpoints_mp_grid     : 4 4 4
symmetry_generate   : True
%BLOCK SPECIES_POT
Si    C19
%ENDBLOCK SPECIES_POT
