##### Generated by aiida_castep 15:43:41 20/01/2022 GMT #####
#         author: Bonan Zhu (bz240@cam.ac.uk)
# # AiiDA User: Alp Samli (asamli1998@gmail.com)
# AiiDA profile: alp
# Information of the calculation node
# label: 
# description:
# 
## Information of input nodes used:
# 
# type: uuid: b7d9748f-e42e-44ba-a1a8-70a25452b6ff (pk: 6266)
# pk: 6266
# linkname: structure
# uuid: b7d9748f-e42e-44ba-a1a8-70a25452b6ff
# label: 
# description:
# 
# 
# type: uuid: 72368703-fc2e-42b6-bec1-a0a260b6840d (pk: 6313)
# pk: 6313
# linkname: settings
# uuid: 72368703-fc2e-42b6-bec1-a0a260b6840d
# label: 
# description:
# 
# 
# type: uuid: 008129cb-c23d-48fe-9376-f562c6c2cfc7 (pk: 6314)
# pk: 6314
# linkname: parameters
# uuid: 008129cb-c23d-48fe-9376-f562c6c2cfc7
# label: 
# description:
# 
# 
# type: uuid: 498755aa-ba78-489a-8120-5a48f39ffc4f (pk: 6312)
# pk: 6312
# linkname: kpoints
# uuid: 498755aa-ba78-489a-8120-5a48f39ffc4f
# label: 
# description:
# 
# 
# type: uuid: 731ebef7-8521-4b78-9cee-ba2607cd5d92 (pk: 852)
# pk: 852
# linkname: pseudo__Si
# uuid: 731ebef7-8521-4b78-9cee-ba2607cd5d92
# label: C19
# description:
# 
# END OF HEADER
%BLOCK LATTICE_CART
      0.0000000000       2.7150000000       2.7150000000
      2.7150000000       0.0000000000       2.7150000000
      2.7150000000       2.7150000000       0.0000000000
%ENDBLOCK LATTICE_CART
%BLOCK POSITIONS_ABS
Si                       0.0000000000       0.0000000000       0.0000000000
Si                       1.3575000000       1.3575000000       1.3575000000
%ENDBLOCK POSITIONS_ABS
kpoints_mp_grid     : 4 4 4
symmetry_generate   : True
%BLOCK SPECIES_POT
Si    C19
%ENDBLOCK SPECIES_POT
