##### Generated by aiida_castep 16:33:55 14/03/2022 GMT #####
#         author: Bonan Zhu (bz240@cam.ac.uk)
# # AiiDA User: Alp Samli (asamli1998@gmail.com)
# AiiDA profile: alp
# Information of the calculation node
# label: 
# description:
# 
## Information of input nodes used:
# 
# type: uuid: d1405029-114f-44ff-8fa3-b7dfac8cf883 (pk: 17818)
# pk: 17818
# linkname: kpoints
# uuid: d1405029-114f-44ff-8fa3-b7dfac8cf883
# label: 
# description:
# 
# 
# type: uuid: 7c0199c2-49ff-4194-9199-e3f482736507 (pk: 17820)
# pk: 17820
# linkname: parameters
# uuid: 7c0199c2-49ff-4194-9199-e3f482736507
# label: 
# description:
# 
# 
# type: uuid: 3b0ce573-ca84-4c44-8704-3b20f490bce1 (pk: 17819)
# pk: 17819
# linkname: settings
# uuid: 3b0ce573-ca84-4c44-8704-3b20f490bce1
# label: 
# description:
# 
# 
# type: uuid: 94464b3b-ba45-4e8c-95db-354227f1bc41 (pk: 17764)
# pk: 17764
# linkname: structure
# uuid: 94464b3b-ba45-4e8c-95db-354227f1bc41
# label: 
# description:
# 
# 
# type: uuid: 731ebef7-8521-4b78-9cee-ba2607cd5d92 (pk: 852)
# pk: 852
# linkname: pseudo__Si
# uuid: 731ebef7-8521-4b78-9cee-ba2607cd5d92
# label: C19
# description:
# 
# END OF HEADER
%BLOCK LATTICE_CART
      0.0000000000       2.7150000000       2.7150000000
      2.7150000000       0.0000000000       2.7150000000
      2.7150000000       2.7150000000       0.0000000000
%ENDBLOCK LATTICE_CART
%BLOCK POSITIONS_ABS
Si                       0.0000000000       0.0000000000       0.0000000000
Si                       1.3575000000       1.3575000000       1.3575000000
%ENDBLOCK POSITIONS_ABS
kpoints_mp_grid     : 4 4 4
symmetry_generate   : True
%BLOCK SPECIES_POT
Si    C19
%ENDBLOCK SPECIES_POT
