##### Generated by aiida_castep 16:11:11 28/02/2022 GMT #####
#         author: Bonan Zhu (bz240@cam.ac.uk)
# # AiiDA User: Alp Samli (asamli1998@gmail.com)
# AiiDA profile: alp
# Information of the calculation node
# label: 
# description:
# 
## Information of input nodes used:
# 
# type: uuid: 41bc567b-cf97-4314-9dde-94e4088c87b1 (pk: 15920)
# pk: 15920
# linkname: kpoints
# uuid: 41bc567b-cf97-4314-9dde-94e4088c87b1
# label: 
# description:
# 
# 
# type: uuid: ced56c16-1461-42e3-9c2b-a3474e0a7922 (pk: 15922)
# pk: 15922
# linkname: parameters
# uuid: ced56c16-1461-42e3-9c2b-a3474e0a7922
# label: 
# description:
# 
# 
# type: uuid: f2d554ac-4389-42b5-8de8-b414188334c5 (pk: 15921)
# pk: 15921
# linkname: settings
# uuid: f2d554ac-4389-42b5-8de8-b414188334c5
# label: 
# description:
# 
# 
# type: uuid: f4efd56d-5b48-42ad-a55f-3b988e0b5e26 (pk: 15780)
# pk: 15780
# linkname: structure
# uuid: f4efd56d-5b48-42ad-a55f-3b988e0b5e26
# label: 
# description:
# 
# 
# type: uuid: 731ebef7-8521-4b78-9cee-ba2607cd5d92 (pk: 852)
# pk: 852
# linkname: pseudo__Si
# uuid: 731ebef7-8521-4b78-9cee-ba2607cd5d92
# label: C19
# description:
# 
# END OF HEADER
%BLOCK LATTICE_CART
      0.0000000000       2.7150000000       2.7150000000
      2.7150000000       0.0000000000       2.7150000000
      2.7150000000       2.7150000000       0.0000000000
%ENDBLOCK LATTICE_CART
%BLOCK POSITIONS_ABS
Si                       0.0000000000       0.0000000000       0.0000000000
Si                       1.3575000000       1.3575000000       1.3575000000
%ENDBLOCK POSITIONS_ABS
kpoints_mp_grid     : 6 6 6
symmetry_generate   : True
%BLOCK SPECIES_POT
Si    C19
%ENDBLOCK SPECIES_POT
