##### Generated by aiida_castep 10:59:20 03/02/2022 GMT #####
#         author: Bonan Zhu (bz240@cam.ac.uk)
# # AiiDA User: Alp Samli (asamli1998@gmail.com)
# AiiDA profile: alp
# Information of the calculation node
# label: 
# description:
# 
## Information of input nodes used:
# 
# type: uuid: 594c32de-4e15-4fa0-ae40-3f43f507c472 (pk: 9897)
# pk: 9897
# linkname: kpoints
# uuid: 594c32de-4e15-4fa0-ae40-3f43f507c472
# label: 
# description:
# 
# 
# type: uuid: 88c985a5-a8a4-443a-9073-959623f30eec (pk: 9899)
# pk: 9899
# linkname: parameters
# uuid: 88c985a5-a8a4-443a-9073-959623f30eec
# label: 
# description:
# 
# 
# type: uuid: 37a1c1cf-f277-447c-8bb1-31ade1ecf4b7 (pk: 9898)
# pk: 9898
# linkname: settings
# uuid: 37a1c1cf-f277-447c-8bb1-31ade1ecf4b7
# label: 
# description:
# 
# 
# type: uuid: e997cdba-ee76-4e0e-81ea-a833b8c4ef2f (pk: 9760)
# pk: 9760
# linkname: structure
# uuid: e997cdba-ee76-4e0e-81ea-a833b8c4ef2f
# label: 
# description:
# 
# 
# type: uuid: 731ebef7-8521-4b78-9cee-ba2607cd5d92 (pk: 852)
# pk: 852
# linkname: pseudo__Si
# uuid: 731ebef7-8521-4b78-9cee-ba2607cd5d92
# label: C19
# description:
# 
# END OF HEADER
%BLOCK LATTICE_CART
      0.0000000000       2.7150000000       2.7150000000
      2.7150000000       0.0000000000       2.7150000000
      2.7150000000       2.7150000000       0.0000000000
%ENDBLOCK LATTICE_CART
%BLOCK POSITIONS_ABS
Si                       0.0000000000       0.0000000000       0.0000000000
Si                       1.3575000000       1.3575000000       1.3575000000
%ENDBLOCK POSITIONS_ABS
kpoints_mp_grid     : 6 6 6
symmetry_generate   : True
%BLOCK SPECIES_POT
Si    C19
%ENDBLOCK SPECIES_POT
