##### Generated by aiida_castep 15:44:09 20/01/2022 GMT #####
#         author: Bonan Zhu (bz240@cam.ac.uk)
# # AiiDA User: Alp Samli (asamli1998@gmail.com)
# AiiDA profile: alp
# Information of the calculation node
# label: 
# description:
# 
## Information of input nodes used:
# 
# type: uuid: b7d9748f-e42e-44ba-a1a8-70a25452b6ff (pk: 6266)
# pk: 6266
# linkname: structure
# uuid: b7d9748f-e42e-44ba-a1a8-70a25452b6ff
# label: 
# description:
# 
# 
# type: uuid: b4b082c8-e4b4-4c83-94bb-5aa84c4d64eb (pk: 6405)
# pk: 6405
# linkname: settings
# uuid: b4b082c8-e4b4-4c83-94bb-5aa84c4d64eb
# label: 
# description:
# 
# 
# type: uuid: cbdd041f-4f2f-41cb-8621-675694dd41b3 (pk: 6406)
# pk: 6406
# linkname: parameters
# uuid: cbdd041f-4f2f-41cb-8621-675694dd41b3
# label: 
# description:
# 
# 
# type: uuid: 3a9000c2-3239-4369-982c-77185c4da037 (pk: 6404)
# pk: 6404
# linkname: kpoints
# uuid: 3a9000c2-3239-4369-982c-77185c4da037
# label: 
# description:
# 
# 
# type: uuid: 731ebef7-8521-4b78-9cee-ba2607cd5d92 (pk: 852)
# pk: 852
# linkname: pseudo__Si
# uuid: 731ebef7-8521-4b78-9cee-ba2607cd5d92
# label: C19
# description:
# 
# END OF HEADER
%BLOCK LATTICE_CART
      0.0000000000       2.7150000000       2.7150000000
      2.7150000000       0.0000000000       2.7150000000
      2.7150000000       2.7150000000       0.0000000000
%ENDBLOCK LATTICE_CART
%BLOCK POSITIONS_ABS
Si                       0.0000000000       0.0000000000       0.0000000000
Si                       1.3575000000       1.3575000000       1.3575000000
%ENDBLOCK POSITIONS_ABS
kpoints_mp_grid     : 6 6 6
symmetry_generate   : True
%BLOCK SPECIES_POT
Si    C19
%ENDBLOCK SPECIES_POT
