##### Generated by aiida_castep 16:34:26 14/03/2022 GMT #####
#         author: Bonan Zhu (bz240@cam.ac.uk)
# # AiiDA User: Alp Samli (asamli1998@gmail.com)
# AiiDA profile: alp
# Information of the calculation node
# label: 
# description:
# 
## Information of input nodes used:
# 
# type: uuid: 03905cfd-c64b-4cc2-9dda-84e5226d196a (pk: 17904)
# pk: 17904
# linkname: kpoints
# uuid: 03905cfd-c64b-4cc2-9dda-84e5226d196a
# label: 
# description:
# 
# 
# type: uuid: 8c78eb03-bd14-4c76-a706-b15aa638af15 (pk: 17906)
# pk: 17906
# linkname: parameters
# uuid: 8c78eb03-bd14-4c76-a706-b15aa638af15
# label: 
# description:
# 
# 
# type: uuid: 9982c911-7edd-4e3f-9823-7d4fd9be56c1 (pk: 17905)
# pk: 17905
# linkname: settings
# uuid: 9982c911-7edd-4e3f-9823-7d4fd9be56c1
# label: 
# description:
# 
# 
# type: uuid: 94464b3b-ba45-4e8c-95db-354227f1bc41 (pk: 17764)
# pk: 17764
# linkname: structure
# uuid: 94464b3b-ba45-4e8c-95db-354227f1bc41
# label: 
# description:
# 
# 
# type: uuid: 731ebef7-8521-4b78-9cee-ba2607cd5d92 (pk: 852)
# pk: 852
# linkname: pseudo__Si
# uuid: 731ebef7-8521-4b78-9cee-ba2607cd5d92
# label: C19
# description:
# 
# END OF HEADER
%BLOCK LATTICE_CART
      0.0000000000       2.7150000000       2.7150000000
      2.7150000000       0.0000000000       2.7150000000
      2.7150000000       2.7150000000       0.0000000000
%ENDBLOCK LATTICE_CART
%BLOCK POSITIONS_ABS
Si                       0.0000000000       0.0000000000       0.0000000000
Si                       1.3575000000       1.3575000000       1.3575000000
%ENDBLOCK POSITIONS_ABS
kpoints_mp_grid     : 6 6 6
symmetry_generate   : True
%BLOCK SPECIES_POT
Si    C19
%ENDBLOCK SPECIES_POT
