##### Generated by aiida_castep 17:05:41 22/03/2022 GMT #####
#         author: Bonan Zhu (bz240@cam.ac.uk)
# # AiiDA User: Alp Samli (asamli1998@gmail.com)
# AiiDA profile: alp
# Information of the calculation node
# label: 
# description:
# 
## Information of input nodes used:
# 
# type: uuid: aaafb3ca-3d35-43fd-a0d6-4cfaf3fa335c (pk: 20596)
# pk: 20596
# linkname: kpoints
# uuid: aaafb3ca-3d35-43fd-a0d6-4cfaf3fa335c
# label: 
# description:
# 
# 
# type: uuid: cf12e3b1-65e5-4662-aa01-2a53164b487b (pk: 20647)
# pk: 20647
# linkname: parameters
# uuid: cf12e3b1-65e5-4662-aa01-2a53164b487b
# label: 
# description:
# 
# 
# type: uuid: 95d82d82-3362-4e73-b1c9-1e01a1ca5f86 (pk: 20646)
# pk: 20646
# linkname: settings
# uuid: 95d82d82-3362-4e73-b1c9-1e01a1ca5f86
# label: 
# description:
# 
# 
# type: uuid: fcda8f40-dbf3-41d8-bb22-8513c3b356c0 (pk: 20541)
# pk: 20541
# linkname: structure
# uuid: fcda8f40-dbf3-41d8-bb22-8513c3b356c0
# label: 
# description:
# 
# 
# type: uuid: 731ebef7-8521-4b78-9cee-ba2607cd5d92 (pk: 852)
# pk: 852
# linkname: pseudo__Fe
# uuid: 731ebef7-8521-4b78-9cee-ba2607cd5d92
# label: C19
# description:
# 
# END OF HEADER
%BLOCK LATTICE_CART
      0.0000000000       2.8600000000       0.0000000000
      1.4300000000       1.4300000000      -4.2900000000
     -2.8600000000       0.0000000000      -2.8600000000
%ENDBLOCK LATTICE_CART
%BLOCK POSITIONS_ABS
Fe                      -1.4300000000       1.4300000000      -4.2900000000 SPIN=5.000 
Fe                      -1.4300000000       1.4300000000      -1.4300000000 SPIN=-5.000 
Fe                       0.0000000000       2.8600000000      -2.8600000000 SPIN=-5.000 
Fe                       0.0000000000       0.0000000000       0.0000000000 SPIN=5.000 
%ENDBLOCK POSITIONS_ABS
kpoints_mp_grid     : 13 9 10
symmetry_generate   : True
%BLOCK SPECIES_POT
Fe    C19
%ENDBLOCK SPECIES_POT
