##### Generated by aiida_castep 17:02:03 19/08/2022 BST #####
#         author: Bonan Zhu (zhubonan@outlook.com)
# # AiiDA User: Alp Samli (asamli1998@gmail.com)
# AiiDA profile: alp
# Information of the calculation node
# label: 
# description:
# 
## Information of input nodes used:
# 
# type: uuid: 24a46cee-99fe-432c-8f14-0182fafc6e65 (pk: 34722)
# pk: 34722
# linkname: kpoints
# uuid: 24a46cee-99fe-432c-8f14-0182fafc6e65
# label: 
# description:
# 
# 
# type: uuid: 22af2c6a-f144-41f2-a538-9e8c59405059 (pk: 34764)
# pk: 34764
# linkname: parameters
# uuid: 22af2c6a-f144-41f2-a538-9e8c59405059
# label: 
# description:
# 
# 
# type: uuid: b6a13208-e18e-4b9f-9962-3df3f6194657 (pk: 34763)
# pk: 34763
# linkname: settings
# uuid: b6a13208-e18e-4b9f-9962-3df3f6194657
# label: 
# description:
# 
# 
# type: uuid: 5cc77390-ecbc-4d73-be53-4bb44a789025 (pk: 34660)
# pk: 34660
# linkname: structure
# uuid: 5cc77390-ecbc-4d73-be53-4bb44a789025
# label: 
# description:
# 
# 
# type: uuid: 731ebef7-8521-4b78-9cee-ba2607cd5d92 (pk: 852)
# pk: 852
# linkname: pseudo__Fe
# uuid: 731ebef7-8521-4b78-9cee-ba2607cd5d92
# label: C19
# description:
# 
# END OF HEADER
%BLOCK LATTICE_CART
     -1.4300000000       1.4300000000       1.4300000000
      2.8600000000       2.8600000000       0.0000000000
     -1.4300000000       1.4300000000      -4.2900000000
%ENDBLOCK LATTICE_CART
%BLOCK POSITIONS_ABS
Fe                      -1.4300000000       1.4300000000      -1.4300000000 SPIN=-5.000 
Fe                      -0.0000000000       2.8600000000      -2.8600000000 SPIN=-5.000 
Fe                       0.0000000000       0.0000000000       0.0000000000 SPIN=5.000 
Fe                      -0.0000000000       2.8600000000       0.0000000000 SPIN=5.000 
%ENDBLOCK POSITIONS_ABS
kpoints_mp_grid     : 11 7 6
symmetry_generate   : True
%BLOCK SPECIES_POT
Fe    C19
%ENDBLOCK SPECIES_POT