##### Generated by aiida_castep 12:00:43 27/09/2022 BST #####
#         author: Bonan Zhu (zhubonan@outlook.com)
# # AiiDA User: Alp Samli (asamli1998@gmail.com)
# AiiDA profile: alp
# Information of the calculation node
# label: Si_pbesol_phonon
# description:
# 
## Information of input nodes used:
# 
# type: uuid: 5689c6f4-c699-423c-b0bd-ce3ad8177260 (pk: 43647)
# pk: 43647
# linkname: kpoints
# uuid: 5689c6f4-c699-423c-b0bd-ce3ad8177260
# label: 
# description:
# 
# 
# type: uuid: 658db27c-8243-4088-88c9-4d4bc95963f5 (pk: 43649)
# pk: 43649
# linkname: parameters
# uuid: 658db27c-8243-4088-88c9-4d4bc95963f5
# label: 
# description:
# 
# 
# type: uuid: 6e99c59c-c1de-45ab-b533-b04944071214 (pk: 43648)
# pk: 43648
# linkname: settings
# uuid: 6e99c59c-c1de-45ab-b533-b04944071214
# label: 
# description:
# 
# 
# type: uuid: be097562-440d-4287-9dc7-88fec0cc1608 (pk: 43634)
# pk: 43634
# linkname: structure
# uuid: be097562-440d-4287-9dc7-88fec0cc1608
# label: 
# description:
# 
# 
# type: uuid: a0d97f2e-4d31-42b8-8c37-d51c1d0ccdaf (pk: 1526)
# pk: 1526
# linkname: pseudo__Si
# uuid: a0d97f2e-4d31-42b8-8c37-d51c1d0ccdaf
# label: NCP
# description:
# 
# END OF HEADER
%BLOCK LATTICE_CART
      0.0000000000       2.7150000000       2.7150000000
      2.7150000000       0.0000000000       2.7150000000
      2.7150000000       2.7150000000       0.0000000000
%ENDBLOCK LATTICE_CART
%BLOCK POSITIONS_ABS
Si                       0.0000000000       0.0000000000       0.0000000000
Si                       1.3575000000       1.3575000000       1.3575000000
%ENDBLOCK POSITIONS_ABS
kpoints_mp_grid     : 8 8 8
symmetry_generate   : True
%BLOCK SPECIES_POT
Si    NCP
%ENDBLOCK SPECIES_POT
phonon_kpoint_mp_grid: 3 3 3
%BLOCK PHONON_FINE_KPOINT_LIST
      0.0000000000       0.0000000000       0.0000000000
      0.5000000000       0.5000000000       0.5000000000
%ENDBLOCK PHONON_FINE_KPOINT_LIST