##### Generated by aiida_castep 16:43:53 22/03/2022 GMT #####
#         author: Bonan Zhu (bz240@cam.ac.uk)
# # AiiDA User: Alp Samli (asamli1998@gmail.com)
# AiiDA profile: alp
# Information of the calculation node
# label: 
# description:
# 
## Information of input nodes used:
# 
# type: uuid: ac9a3743-102c-47a5-97e7-7576429eb9b0 (pk: 20588)
# pk: 20588
# linkname: kpoints
# uuid: ac9a3743-102c-47a5-97e7-7576429eb9b0
# label: 
# description:
# 
# 
# type: uuid: 57694aef-f220-4fbc-baf1-ff7758def090 (pk: 20590)
# pk: 20590
# linkname: parameters
# uuid: 57694aef-f220-4fbc-baf1-ff7758def090
# label: 
# description:
# 
# 
# type: uuid: 0e536374-7a37-4274-9720-a857b1ab4894 (pk: 20589)
# pk: 20589
# linkname: settings
# uuid: 0e536374-7a37-4274-9720-a857b1ab4894
# label: 
# description:
# 
# 
# type: uuid: 2b38b101-f532-4465-994a-d50003e5d673 (pk: 20537)
# pk: 20537
# linkname: structure
# uuid: 2b38b101-f532-4465-994a-d50003e5d673
# label: 
# description:
# 
# 
# type: uuid: 731ebef7-8521-4b78-9cee-ba2607cd5d92 (pk: 852)
# pk: 852
# linkname: pseudo__Fe
# uuid: 731ebef7-8521-4b78-9cee-ba2607cd5d92
# label: C19
# description:
# 
# END OF HEADER
%BLOCK LATTICE_CART
      0.0000000000       2.8600000000       0.0000000000
      2.8600000000       0.0000000000       0.0000000000
      0.0000000000       0.0000000000      -2.8600000000
%ENDBLOCK LATTICE_CART
%BLOCK POSITIONS_ABS
Fe                       0.0000000000       0.0000000000       0.0000000000 SPIN=5.000 
Fe                       1.4300000000       1.4300000000      -1.4300000000 SPIN=-5.000 
%ENDBLOCK POSITIONS_ABS
kpoints_mp_grid     : 12 12 12
symmetry_generate   : True
%BLOCK SPECIES_POT
Fe    C19
%ENDBLOCK SPECIES_POT
