##### Generated by aiida_castep 16:08:01 19/08/2022 BST #####
#         author: Bonan Zhu (zhubonan@outlook.com)
# # AiiDA User: Alp Samli (asamli1998@gmail.com)
# AiiDA profile: alp
# Information of the calculation node
# label: 
# description:
# 
## Information of input nodes used:
# 
# type: uuid: 34d18735-7e37-4253-9b87-94733f19ee98 (pk: 34702)
# pk: 34702
# linkname: kpoints
# uuid: 34d18735-7e37-4253-9b87-94733f19ee98
# label: 
# description:
# 
# 
# type: uuid: e469c6b7-83b1-4e1e-b25e-39b6f5497695 (pk: 34704)
# pk: 34704
# linkname: parameters
# uuid: e469c6b7-83b1-4e1e-b25e-39b6f5497695
# label: 
# description:
# 
# 
# type: uuid: d125c017-fc39-4499-82ed-219d03667f2e (pk: 34703)
# pk: 34703
# linkname: settings
# uuid: d125c017-fc39-4499-82ed-219d03667f2e
# label: 
# description:
# 
# 
# type: uuid: d26167a3-d240-43b8-870e-5cd4b1c86497 (pk: 34650)
# pk: 34650
# linkname: structure
# uuid: d26167a3-d240-43b8-870e-5cd4b1c86497
# label: 
# description:
# 
# 
# type: uuid: 731ebef7-8521-4b78-9cee-ba2607cd5d92 (pk: 852)
# pk: 852
# linkname: pseudo__Fe
# uuid: 731ebef7-8521-4b78-9cee-ba2607cd5d92
# label: C19
# description:
# 
# END OF HEADER
%BLOCK LATTICE_CART
      0.0000000000       2.8600000000       0.0000000000
      2.8600000000       0.0000000000       0.0000000000
      0.0000000000       0.0000000000      -2.8600000000
%ENDBLOCK LATTICE_CART
%BLOCK POSITIONS_ABS
Fe                       0.0000000000       0.0000000000       0.0000000000 SPIN=5.000 
Fe                       1.4300000000       1.4300000000      -1.4300000000 SPIN=-5.000 
%ENDBLOCK POSITIONS_ABS
kpoints_mp_grid     : 9 9 9
symmetry_generate   : True
%BLOCK SPECIES_POT
Fe    C19
%ENDBLOCK SPECIES_POT