##### Generated by aiida_castep 09:59:35 02/11/2023 GMT #####
#         author: Bonan Zhu (zhubonan@outlook.com)
# # AiiDA User: Alp Samli (asamli1998@gmail.com)
# AiiDA profile: alp
# Information of the calculation node
# label: 
# description:
# 
## Information of input nodes used:
# 
# type: uuid: 061621c8-093b-418a-aa76-f11d4ee4acb6 (pk: 157066)
# pk: 157066
# linkname: kpoints
# uuid: 061621c8-093b-418a-aa76-f11d4ee4acb6
# label: 
# description:
# 
# 
# type: uuid: 2433258f-4b5d-447a-bd7c-a2004293be76 (pk: 157068)
# pk: 157068
# linkname: parameters
# uuid: 2433258f-4b5d-447a-bd7c-a2004293be76
# label: 
# description:
# 
# 
# type: uuid: cd1bc615-fc77-4a78-9a8b-49832ebfe9ca (pk: 157067)
# pk: 157067
# linkname: settings
# uuid: cd1bc615-fc77-4a78-9a8b-49832ebfe9ca
# label: 
# description:
# 
# 
# type: uuid: 8356a889-e237-4127-8fb2-65b279fd1dde (pk: 156881)
# pk: 156881
# linkname: structure
# uuid: 8356a889-e237-4127-8fb2-65b279fd1dde
# label: 
# description:
# 
# 
# type: uuid: 731ebef7-8521-4b78-9cee-ba2607cd5d92 (pk: 852)
# pk: 852
# linkname: pseudo__Zr
# uuid: 731ebef7-8521-4b78-9cee-ba2607cd5d92
# label: C19
# description:
# 
# END OF HEADER
%BLOCK LATTICE_CART
      1.6196160000      -2.8052570000       0.0000000000
      1.6196160000       2.8052570000       0.0000000000
      0.0000000000       0.0000000000       5.1722200000
%ENDBLOCK LATTICE_CART
%BLOCK POSITIONS_ABS
Zr                       1.6196160000       0.9350875368       1.2930550000
Zr                       1.6196160000      -0.9350875368       3.8791650000
%ENDBLOCK POSITIONS_ABS
kpoints_mp_grid     : 4 4 3
symmetry_generate   : True
%BLOCK SPECIES_POT
Zr    C19
%ENDBLOCK SPECIES_POT