##### Generated by aiida_castep 09:59:43 02/11/2023 GMT #####
#         author: Bonan Zhu (zhubonan@outlook.com)
# # AiiDA User: Alp Samli (asamli1998@gmail.com)
# AiiDA profile: alp
# Information of the calculation node
# label: 
# description:
# 
## Information of input nodes used:
# 
# type: uuid: e7f79abc-e2c0-470f-bbf6-bdefd4f017e5 (pk: 157078)
# pk: 157078
# linkname: kpoints
# uuid: e7f79abc-e2c0-470f-bbf6-bdefd4f017e5
# label: 
# description:
# 
# 
# type: uuid: 46b6884c-e999-40e8-aca3-770311134b39 (pk: 157080)
# pk: 157080
# linkname: parameters
# uuid: 46b6884c-e999-40e8-aca3-770311134b39
# label: 
# description:
# 
# 
# type: uuid: 603aa33b-d8f6-45ec-925e-598f7680d6b7 (pk: 157079)
# pk: 157079
# linkname: settings
# uuid: 603aa33b-d8f6-45ec-925e-598f7680d6b7
# label: 
# description:
# 
# 
# type: uuid: 8356a889-e237-4127-8fb2-65b279fd1dde (pk: 156881)
# pk: 156881
# linkname: structure
# uuid: 8356a889-e237-4127-8fb2-65b279fd1dde
# label: 
# description:
# 
# 
# type: uuid: 731ebef7-8521-4b78-9cee-ba2607cd5d92 (pk: 852)
# pk: 852
# linkname: pseudo__Zr
# uuid: 731ebef7-8521-4b78-9cee-ba2607cd5d92
# label: C19
# description:
# 
# END OF HEADER
%BLOCK LATTICE_CART
      1.6196160000      -2.8052570000       0.0000000000
      1.6196160000       2.8052570000       0.0000000000
      0.0000000000       0.0000000000       5.1722200000
%ENDBLOCK LATTICE_CART
%BLOCK POSITIONS_ABS
Zr                       1.6196160000       0.9350875368       1.2930550000
Zr                       1.6196160000      -0.9350875368       3.8791650000
%ENDBLOCK POSITIONS_ABS
kpoints_mp_grid     : 6 6 4
symmetry_generate   : True
%BLOCK SPECIES_POT
Zr    C19
%ENDBLOCK SPECIES_POT