##### Generated by aiida_castep 09:30:18 25/02/2022 GMT #####
#         author: Bonan Zhu (bz240@cam.ac.uk)
# # AiiDA User: Alp Samli (asamli1998@gmail.com)
# AiiDA profile: alp
# Information of the calculation node
# label: Fe_pbesol_dos+bands
# description:
# 
## Information of input nodes used:
# 
# type: uuid: 9b29d62c-ee38-47ae-9977-ba1b8d6e213b (pk: 14427)
# pk: 14427
# linkname: kpoints
# uuid: 9b29d62c-ee38-47ae-9977-ba1b8d6e213b
# label: 
# description:
# 
# 
# type: uuid: 7cae2820-f621-42dc-b415-a97c9fe45f94 (pk: 14429)
# pk: 14429
# linkname: parameters
# uuid: 7cae2820-f621-42dc-b415-a97c9fe45f94
# label: 
# description:
# 
# 
# type: uuid: 17f5aba8-74c9-4a56-8b8c-90c76e91be0c (pk: 14428)
# pk: 14428
# linkname: settings
# uuid: 17f5aba8-74c9-4a56-8b8c-90c76e91be0c
# label: 
# description:
# 
# 
# type: uuid: b693caee-034e-40a4-b4a9-298156b075de (pk: 14417)
# pk: 14417
# linkname: structure
# uuid: b693caee-034e-40a4-b4a9-298156b075de
# label: 
# description:
# 
# 
# type: uuid: 731ebef7-8521-4b78-9cee-ba2607cd5d92 (pk: 852)
# pk: 852
# linkname: pseudo__Fe
# uuid: 731ebef7-8521-4b78-9cee-ba2607cd5d92
# label: C19
# description:
# 
# END OF HEADER
%BLOCK LATTICE_CART
     -1.4350000000       1.4350000000       1.4350000000
      1.4350000000      -1.4350000000       1.4350000000
      1.4350000000       1.4350000000      -1.4350000000
%ENDBLOCK LATTICE_CART
%BLOCK POSITIONS_ABS
Fe                       0.0000000000       0.0000000000       0.0000000000
%ENDBLOCK POSITIONS_ABS
kpoints_mp_grid     : 13 13 13
symmetry_generate   : True
spectral_kpoint_mp_spacing: 0.013333333333333
%BLOCK SPECIES_POT
Fe    C19
%ENDBLOCK SPECIES_POT
