##### Generated by aiida_castep 13:59:57 15/02/2022 GMT #####
#         author: Bonan Zhu (bz240@cam.ac.uk)
# # AiiDA User: Alp Samli (asamli1998@gmail.com)
# AiiDA profile: alp
# Information of the calculation node
# label: Fe_pbesol_dos+bands
# description:
# 
## Information of input nodes used:
# 
# type: uuid: 3e331061-dc02-4b3d-b78f-4384a7505e49 (pk: 12945)
# pk: 12945
# linkname: structure
# uuid: 3e331061-dc02-4b3d-b78f-4384a7505e49
# label: 
# description:
# 
# 
# type: uuid: 417f796b-3f7a-45d2-a082-c171ae20acce (pk: 12956)
# pk: 12956
# linkname: settings
# uuid: 417f796b-3f7a-45d2-a082-c171ae20acce
# label: 
# description:
# 
# 
# type: uuid: b2252abb-9d9f-4705-8fe5-4301cdb2edfa (pk: 12957)
# pk: 12957
# linkname: parameters
# uuid: b2252abb-9d9f-4705-8fe5-4301cdb2edfa
# label: 
# description:
# 
# 
# type: uuid: 8019f67d-c486-447f-b205-cdeebf979f03 (pk: 12955)
# pk: 12955
# linkname: kpoints
# uuid: 8019f67d-c486-447f-b205-cdeebf979f03
# label: 
# description:
# 
# 
# type: uuid: 731ebef7-8521-4b78-9cee-ba2607cd5d92 (pk: 852)
# pk: 852
# linkname: pseudo__Fe
# uuid: 731ebef7-8521-4b78-9cee-ba2607cd5d92
# label: C19
# description:
# 
# END OF HEADER
%BLOCK LATTICE_CART
     -1.4350000000       1.4350000000       1.4350000000
      1.4350000000      -1.4350000000       1.4350000000
      1.4350000000       1.4350000000      -1.4350000000
%ENDBLOCK LATTICE_CART
%BLOCK POSITIONS_ABS
Fe                       0.0000000000       0.0000000000       0.0000000000
%ENDBLOCK POSITIONS_ABS
kpoints_mp_grid     : 8 8 8
symmetry_generate   : True
spectral_kpoint_mp_spacing: 0.023333333333333
%BLOCK SPECIES_POT
Fe    C19
%ENDBLOCK SPECIES_POT
