##### Generated by aiida_castep 13:35:30 27/01/2022 GMT #####
#         author: Bonan Zhu (bz240@cam.ac.uk)
# # AiiDA User: Alp Samli (asamli1998@gmail.com)
# AiiDA profile: alp
# Information of the calculation node
# label: Si_pbesol_phonon
# description:
# 
## Information of input nodes used:
# 
# type: uuid: ccb5f728-7028-446e-bc26-08c0c72292b1 (pk: 8088)
# pk: 8088
# linkname: kpoints
# uuid: ccb5f728-7028-446e-bc26-08c0c72292b1
# label: 
# description:
# 
# 
# type: uuid: 8d673740-5494-49a1-8e7f-6b81fd3ae434 (pk: 8090)
# pk: 8090
# linkname: parameters
# uuid: 8d673740-5494-49a1-8e7f-6b81fd3ae434
# label: 
# description:
# 
# 
# type: uuid: 8e408050-87f8-443a-ac62-d982bcfd190d (pk: 8089)
# pk: 8089
# linkname: settings
# uuid: 8e408050-87f8-443a-ac62-d982bcfd190d
# label: 
# description:
# 
# 
# type: uuid: a8093c5f-636b-473f-a1b5-de3ac51f9b11 (pk: 8062)
# pk: 8062
# linkname: structure
# uuid: a8093c5f-636b-473f-a1b5-de3ac51f9b11
# label: 
# description:
# 
# 
# type: uuid: a0d97f2e-4d31-42b8-8c37-d51c1d0ccdaf (pk: 1526)
# pk: 1526
# linkname: pseudo__Si
# uuid: a0d97f2e-4d31-42b8-8c37-d51c1d0ccdaf
# label: NCP
# description:
# 
# END OF HEADER
%BLOCK LATTICE_CART
      0.0000000000       2.7150000000       2.7150000000
      2.7150000000       0.0000000000       2.7150000000
      2.7150000000       2.7150000000       0.0000000000
%ENDBLOCK LATTICE_CART
%BLOCK POSITIONS_ABS
Si                       0.0000000000       0.0000000000       0.0000000000
Si                       1.3575000000       1.3575000000       1.3575000000
%ENDBLOCK POSITIONS_ABS
kpoints_mp_grid     : 4 4 4
symmetry_generate   : True
%BLOCK SPECIES_POT
Si    NCP
%ENDBLOCK SPECIES_POT
phonon_kpoint_mp_grid: 1 1 1
