##### Generated by aiida_castep 15:43:41 20/01/2022 GMT #####
#         author: Bonan Zhu (bz240@cam.ac.uk)
# # AiiDA User: Alp Samli (asamli1998@gmail.com)
# AiiDA profile: alp
# Information of the calculation node
# label: 
# description:
# 
## Information of input nodes used:
# 
# type: uuid: b7d9748f-e42e-44ba-a1a8-70a25452b6ff (pk: 6266)
# pk: 6266
# linkname: structure
# uuid: b7d9748f-e42e-44ba-a1a8-70a25452b6ff
# label: 
# description:
# 
# 
# type: uuid: a09d06a3-c91c-40d7-9ee6-c21a2b0f6e12 (pk: 6321)
# pk: 6321
# linkname: settings
# uuid: a09d06a3-c91c-40d7-9ee6-c21a2b0f6e12
# label: 
# description:
# 
# 
# type: uuid: 7de0f9f5-c279-4212-83e6-13418ecda439 (pk: 6322)
# pk: 6322
# linkname: parameters
# uuid: 7de0f9f5-c279-4212-83e6-13418ecda439
# label: 
# description:
# 
# 
# type: uuid: 024ed216-0ac1-4e06-a0be-a9fcc4bfbc23 (pk: 6320)
# pk: 6320
# linkname: kpoints
# uuid: 024ed216-0ac1-4e06-a0be-a9fcc4bfbc23
# label: 
# description:
# 
# 
# type: uuid: 731ebef7-8521-4b78-9cee-ba2607cd5d92 (pk: 852)
# pk: 852
# linkname: pseudo__Si
# uuid: 731ebef7-8521-4b78-9cee-ba2607cd5d92
# label: C19
# description:
# 
# END OF HEADER
%BLOCK LATTICE_CART
      0.0000000000       2.7150000000       2.7150000000
      2.7150000000       0.0000000000       2.7150000000
      2.7150000000       2.7150000000       0.0000000000
%ENDBLOCK LATTICE_CART
%BLOCK POSITIONS_ABS
Si                       0.0000000000       0.0000000000       0.0000000000
Si                       1.3575000000       1.3575000000       1.3575000000
%ENDBLOCK POSITIONS_ABS
kpoints_mp_grid     : 4 4 4
symmetry_generate   : True
%BLOCK SPECIES_POT
Si    C19
%ENDBLOCK SPECIES_POT
