##### Generated by aiida_castep 10:58:51 03/02/2022 GMT #####
#         author: Bonan Zhu (bz240@cam.ac.uk)
# # AiiDA User: Alp Samli (asamli1998@gmail.com)
# AiiDA profile: alp
# Information of the calculation node
# label: 
# description:
# 
## Information of input nodes used:
# 
# type: uuid: 73a5d7c6-0223-423d-b6ae-0fd695cdcb33 (pk: 9822)
# pk: 9822
# linkname: kpoints
# uuid: 73a5d7c6-0223-423d-b6ae-0fd695cdcb33
# label: 
# description:
# 
# 
# type: uuid: 3b6cce57-3f80-461c-8f14-ea3907623913 (pk: 9824)
# pk: 9824
# linkname: parameters
# uuid: 3b6cce57-3f80-461c-8f14-ea3907623913
# label: 
# description:
# 
# 
# type: uuid: 12df2d55-f81a-4260-a8ce-9f1470fbaf56 (pk: 9823)
# pk: 9823
# linkname: settings
# uuid: 12df2d55-f81a-4260-a8ce-9f1470fbaf56
# label: 
# description:
# 
# 
# type: uuid: e997cdba-ee76-4e0e-81ea-a833b8c4ef2f (pk: 9760)
# pk: 9760
# linkname: structure
# uuid: e997cdba-ee76-4e0e-81ea-a833b8c4ef2f
# label: 
# description:
# 
# 
# type: uuid: 731ebef7-8521-4b78-9cee-ba2607cd5d92 (pk: 852)
# pk: 852
# linkname: pseudo__Si
# uuid: 731ebef7-8521-4b78-9cee-ba2607cd5d92
# label: C19
# description:
# 
# END OF HEADER
%BLOCK LATTICE_CART
      0.0000000000       2.7150000000       2.7150000000
      2.7150000000       0.0000000000       2.7150000000
      2.7150000000       2.7150000000       0.0000000000
%ENDBLOCK LATTICE_CART
%BLOCK POSITIONS_ABS
Si                       0.0000000000       0.0000000000       0.0000000000
Si                       1.3575000000       1.3575000000       1.3575000000
%ENDBLOCK POSITIONS_ABS
kpoints_mp_grid     : 4 4 4
symmetry_generate   : True
%BLOCK SPECIES_POT
Si    C19
%ENDBLOCK SPECIES_POT
