##### Generated by aiida_castep 16:33:56 14/03/2022 GMT #####
#         author: Bonan Zhu (bz240@cam.ac.uk)
# # AiiDA User: Alp Samli (asamli1998@gmail.com)
# AiiDA profile: alp
# Information of the calculation node
# label: 
# description:
# 
## Information of input nodes used:
# 
# type: uuid: c492b392-73c4-443c-b97c-fa146723b546 (pk: 17826)
# pk: 17826
# linkname: kpoints
# uuid: c492b392-73c4-443c-b97c-fa146723b546
# label: 
# description:
# 
# 
# type: uuid: 9485b61a-8dd4-4af2-91d4-70ebc793a9b3 (pk: 17828)
# pk: 17828
# linkname: parameters
# uuid: 9485b61a-8dd4-4af2-91d4-70ebc793a9b3
# label: 
# description:
# 
# 
# type: uuid: df1db20d-0b63-4a58-b4b3-349c3838c18e (pk: 17827)
# pk: 17827
# linkname: settings
# uuid: df1db20d-0b63-4a58-b4b3-349c3838c18e
# label: 
# description:
# 
# 
# type: uuid: 94464b3b-ba45-4e8c-95db-354227f1bc41 (pk: 17764)
# pk: 17764
# linkname: structure
# uuid: 94464b3b-ba45-4e8c-95db-354227f1bc41
# label: 
# description:
# 
# 
# type: uuid: 731ebef7-8521-4b78-9cee-ba2607cd5d92 (pk: 852)
# pk: 852
# linkname: pseudo__Si
# uuid: 731ebef7-8521-4b78-9cee-ba2607cd5d92
# label: C19
# description:
# 
# END OF HEADER
%BLOCK LATTICE_CART
      0.0000000000       2.7150000000       2.7150000000
      2.7150000000       0.0000000000       2.7150000000
      2.7150000000       2.7150000000       0.0000000000
%ENDBLOCK LATTICE_CART
%BLOCK POSITIONS_ABS
Si                       0.0000000000       0.0000000000       0.0000000000
Si                       1.3575000000       1.3575000000       1.3575000000
%ENDBLOCK POSITIONS_ABS
kpoints_mp_grid     : 4 4 4
symmetry_generate   : True
%BLOCK SPECIES_POT
Si    C19
%ENDBLOCK SPECIES_POT
