##### Generated by aiida_castep 16:10:41 28/02/2022 GMT #####
#         author: Bonan Zhu (bz240@cam.ac.uk)
# # AiiDA User: Alp Samli (asamli1998@gmail.com)
# AiiDA profile: alp
# Information of the calculation node
# label: 
# description:
# 
## Information of input nodes used:
# 
# type: uuid: 38d3a1e0-3e96-49b6-a94a-d8a21b548579 (pk: 15842)
# pk: 15842
# linkname: kpoints
# uuid: 38d3a1e0-3e96-49b6-a94a-d8a21b548579
# label: 
# description:
# 
# 
# type: uuid: 750b6a8a-4688-4bc6-b78e-966a7d047ca4 (pk: 15844)
# pk: 15844
# linkname: parameters
# uuid: 750b6a8a-4688-4bc6-b78e-966a7d047ca4
# label: 
# description:
# 
# 
# type: uuid: 47e7053b-74fc-4a13-8ba0-3cb788da5ba4 (pk: 15843)
# pk: 15843
# linkname: settings
# uuid: 47e7053b-74fc-4a13-8ba0-3cb788da5ba4
# label: 
# description:
# 
# 
# type: uuid: f4efd56d-5b48-42ad-a55f-3b988e0b5e26 (pk: 15780)
# pk: 15780
# linkname: structure
# uuid: f4efd56d-5b48-42ad-a55f-3b988e0b5e26
# label: 
# description:
# 
# 
# type: uuid: 731ebef7-8521-4b78-9cee-ba2607cd5d92 (pk: 852)
# pk: 852
# linkname: pseudo__Si
# uuid: 731ebef7-8521-4b78-9cee-ba2607cd5d92
# label: C19
# description:
# 
# END OF HEADER
%BLOCK LATTICE_CART
      0.0000000000       2.7150000000       2.7150000000
      2.7150000000       0.0000000000       2.7150000000
      2.7150000000       2.7150000000       0.0000000000
%ENDBLOCK LATTICE_CART
%BLOCK POSITIONS_ABS
Si                       0.0000000000       0.0000000000       0.0000000000
Si                       1.3575000000       1.3575000000       1.3575000000
%ENDBLOCK POSITIONS_ABS
kpoints_mp_grid     : 4 4 4
symmetry_generate   : True
%BLOCK SPECIES_POT
Si    C19
%ENDBLOCK SPECIES_POT
