##### Generated by aiida_castep 17:23:44 21/04/2022 BST #####
#         author: Bonan Zhu (bz240@cam.ac.uk)
# # AiiDA User: Alp Samli (asamli1998@gmail.com)
# AiiDA profile: alp
# Information of the calculation node
# label: Si_pbesol_core_loss
# description:
# 
## Information of input nodes used:
# 
# type: uuid: 2058dc54-fa45-4ca7-85b9-40f7168e3f10 (pk: 23599)
# pk: 23599
# linkname: structure
# uuid: 2058dc54-fa45-4ca7-85b9-40f7168e3f10
# label: 
# description:
# 
# 
# type: uuid: 2a26adae-5873-414d-aadc-103d3200c26d (pk: 23609)
# pk: 23609
# linkname: settings
# uuid: 2a26adae-5873-414d-aadc-103d3200c26d
# label: 
# description:
# 
# 
# type: uuid: ae064f60-fd85-4771-854f-b25b40225e02 (pk: 23610)
# pk: 23610
# linkname: parameters
# uuid: ae064f60-fd85-4771-854f-b25b40225e02
# label: 
# description:
# 
# 
# type: uuid: 28899c62-4f39-44d9-9e7f-c9aaf4f52f3b (pk: 23608)
# pk: 23608
# linkname: kpoints
# uuid: 28899c62-4f39-44d9-9e7f-c9aaf4f52f3b
# label: 
# description:
# 
# 
# type: uuid: 731ebef7-8521-4b78-9cee-ba2607cd5d92 (pk: 852)
# pk: 852
# linkname: pseudo__Si
# uuid: 731ebef7-8521-4b78-9cee-ba2607cd5d92
# label: C19
# description:
# 
# END OF HEADER
%BLOCK LATTICE_CART
      0.0000000000       2.7150000000       2.7150000000
      2.7150000000       0.0000000000       2.7150000000
      2.7150000000       2.7150000000       0.0000000000
%ENDBLOCK LATTICE_CART
%BLOCK POSITIONS_ABS
Si                       0.0000000000       0.0000000000       0.0000000000
Si                       1.3575000000       1.3575000000       1.3575000000
%ENDBLOCK POSITIONS_ABS
kpoints_mp_grid     : 8 8 8
symmetry_generate   : True
spectral_kpoint_mp_spacing: 0.04
%BLOCK SPECIES_POT
Si    C19
%ENDBLOCK SPECIES_POT
