##### Generated by aiida_castep 09:59:32 02/11/2023 GMT #####
#         author: Bonan Zhu (zhubonan@outlook.com)
# # AiiDA User: Alp Samli (asamli1998@gmail.com)
# AiiDA profile: alp
# Information of the calculation node
# label: 
# description:
# 
## Information of input nodes used:
# 
# type: uuid: 07996dd8-3f41-4523-89a8-905937e58035 (pk: 157062)
# pk: 157062
# linkname: kpoints
# uuid: 07996dd8-3f41-4523-89a8-905937e58035
# label: 
# description:
# 
# 
# type: uuid: baf9e95a-ff5c-4806-8af0-51757f54c2dd (pk: 157064)
# pk: 157064
# linkname: parameters
# uuid: baf9e95a-ff5c-4806-8af0-51757f54c2dd
# label: 
# description:
# 
# 
# type: uuid: 9eca6f04-9e1c-4006-a894-ce0370dc1bdf (pk: 157063)
# pk: 157063
# linkname: settings
# uuid: 9eca6f04-9e1c-4006-a894-ce0370dc1bdf
# label: 
# description:
# 
# 
# type: uuid: 8356a889-e237-4127-8fb2-65b279fd1dde (pk: 156881)
# pk: 156881
# linkname: structure
# uuid: 8356a889-e237-4127-8fb2-65b279fd1dde
# label: 
# description:
# 
# 
# type: uuid: 731ebef7-8521-4b78-9cee-ba2607cd5d92 (pk: 852)
# pk: 852
# linkname: pseudo__Zr
# uuid: 731ebef7-8521-4b78-9cee-ba2607cd5d92
# label: C19
# description:
# 
# END OF HEADER
%BLOCK LATTICE_CART
      1.6196160000      -2.8052570000       0.0000000000
      1.6196160000       2.8052570000       0.0000000000
      0.0000000000       0.0000000000       5.1722200000
%ENDBLOCK LATTICE_CART
%BLOCK POSITIONS_ABS
Zr                       1.6196160000       0.9350875368       1.2930550000
Zr                       1.6196160000      -0.9350875368       3.8791650000
%ENDBLOCK POSITIONS_ABS
kpoints_mp_grid     : 4 4 2
symmetry_generate   : True
%BLOCK SPECIES_POT
Zr    C19
%ENDBLOCK SPECIES_POT