##### Generated by aiida_castep 19:26:36 22/03/2022 GMT #####
#         author: Bonan Zhu (bz240@cam.ac.uk)
# # AiiDA User: Alp Samli (asamli1998@gmail.com)
# AiiDA profile: alp
# Information of the calculation node
# label: 
# description:
# 
## Information of input nodes used:
# 
# type: uuid: aaafb3ca-3d35-43fd-a0d6-4cfaf3fa335c (pk: 20596)
# pk: 20596
# linkname: kpoints
# uuid: aaafb3ca-3d35-43fd-a0d6-4cfaf3fa335c
# label: 
# description:
# 
# 
# type: uuid: cd317745-faa3-41cd-89b9-ce395d440f9b (pk: 20696)
# pk: 20696
# linkname: parameters
# uuid: cd317745-faa3-41cd-89b9-ce395d440f9b
# label: 
# description:
# 
# 
# type: uuid: d01d9141-3c0f-47ac-84b1-e95ec15d01b3 (pk: 20695)
# pk: 20695
# linkname: settings
# uuid: d01d9141-3c0f-47ac-84b1-e95ec15d01b3
# label: 
# description:
# 
# 
# type: uuid: fcda8f40-dbf3-41d8-bb22-8513c3b356c0 (pk: 20541)
# pk: 20541
# linkname: structure
# uuid: fcda8f40-dbf3-41d8-bb22-8513c3b356c0
# label: 
# description:
# 
# 
# type: uuid: 731ebef7-8521-4b78-9cee-ba2607cd5d92 (pk: 852)
# pk: 852
# linkname: pseudo__Fe
# uuid: 731ebef7-8521-4b78-9cee-ba2607cd5d92
# label: C19
# description:
# 
# END OF HEADER
%BLOCK LATTICE_CART
      0.0000000000       2.8600000000       0.0000000000
      1.4300000000       1.4300000000      -4.2900000000
     -2.8600000000       0.0000000000      -2.8600000000
%ENDBLOCK LATTICE_CART
%BLOCK POSITIONS_ABS
Fe                      -1.4300000000       1.4300000000      -4.2900000000 SPIN=5.000 
Fe                      -1.4300000000       1.4300000000      -1.4300000000 SPIN=-5.000 
Fe                       0.0000000000       2.8600000000      -2.8600000000 SPIN=-5.000 
Fe                       0.0000000000       0.0000000000       0.0000000000 SPIN=5.000 
%ENDBLOCK POSITIONS_ABS
kpoints_mp_grid     : 13 9 10
symmetry_generate   : True
%BLOCK SPECIES_POT
Fe    C19
%ENDBLOCK SPECIES_POT
