##### Generated by aiida_castep 09:58:53 02/11/2023 GMT #####
#         author: Bonan Zhu (zhubonan@outlook.com)
# # AiiDA User: Alp Samli (asamli1998@gmail.com)
# AiiDA profile: alp
# Information of the calculation node
# label: 
# description:
# 
## Information of input nodes used:
# 
# type: uuid: b77a8fa7-3a4f-4244-8d17-16a6fefa98b6 (pk: 157010)
# pk: 157010
# linkname: kpoints
# uuid: b77a8fa7-3a4f-4244-8d17-16a6fefa98b6
# label: 
# description:
# 
# 
# type: uuid: 29395c01-1e87-4d8e-ae57-e3aa15c1a8d8 (pk: 157012)
# pk: 157012
# linkname: parameters
# uuid: 29395c01-1e87-4d8e-ae57-e3aa15c1a8d8
# label: 
# description:
# 
# 
# type: uuid: 77ca11af-8eab-4a8e-8c2a-dadaddd29afd (pk: 157011)
# pk: 157011
# linkname: settings
# uuid: 77ca11af-8eab-4a8e-8c2a-dadaddd29afd
# label: 
# description:
# 
# 
# type: uuid: c8f84600-8dda-4992-8ed9-2b63a7d0211d (pk: 156878)
# pk: 156878
# linkname: structure
# uuid: c8f84600-8dda-4992-8ed9-2b63a7d0211d
# label: 
# description:
# 
# 
# type: uuid: 731ebef7-8521-4b78-9cee-ba2607cd5d92 (pk: 852)
# pk: 852
# linkname: pseudo__Ti
# uuid: 731ebef7-8521-4b78-9cee-ba2607cd5d92
# label: C19
# description:
# 
# END OF HEADER
%BLOCK LATTICE_CART
      2.2884270000      -3.9636730000       0.0000000000
      2.2884270000       3.9636730000       0.0000000000
      0.0000000000       0.0000000000       2.8286830000
%ENDBLOCK LATTICE_CART
%BLOCK POSITIONS_ABS
Ti                       0.0000000000       0.0000000000       0.0000000000
Ti                       2.2884270000       1.3212269758       1.4143415000
Ti                       2.2884270000      -1.3212269758       1.4143415000
%ENDBLOCK POSITIONS_ABS
kpoints_mp_grid     : 6 6 8
symmetry_generate   : True
%BLOCK SPECIES_POT
Ti    C19
%ENDBLOCK SPECIES_POT