##### Generated by aiida_castep 12:51:35 09/06/2023 BST #####
#         author: Bonan Zhu (zhubonan@outlook.com)
# # AiiDA User: Alp Samli (asamli1998@gmail.com)
# AiiDA profile: alp
# Information of the calculation node
# label: 
# description:
# 
## Information of input nodes used:
# 
# type: uuid: 1409a75f-05b2-4c5d-80e5-fa941e2ffc6b (pk: 117528)
# pk: 117528
# linkname: kpoints
# uuid: 1409a75f-05b2-4c5d-80e5-fa941e2ffc6b
# label: 
# description:
# 
# 
# type: uuid: 46ef2384-6b19-401e-9336-f7a2311b7a2b (pk: 117530)
# pk: 117530
# linkname: parameters
# uuid: 46ef2384-6b19-401e-9336-f7a2311b7a2b
# label: 
# description:
# 
# 
# type: uuid: 4e8bb6c3-104a-4b28-bae4-7517f5376860 (pk: 117529)
# pk: 117529
# linkname: settings
# uuid: 4e8bb6c3-104a-4b28-bae4-7517f5376860
# label: 
# description:
# 
# 
# type: uuid: 0f83e2c2-3066-4747-b268-61bbcb163fe6 (pk: 117426)
# pk: 117426
# linkname: structure
# uuid: 0f83e2c2-3066-4747-b268-61bbcb163fe6
# label: 
# description:
# 
# 
# type: uuid: 731ebef7-8521-4b78-9cee-ba2607cd5d92 (pk: 852)
# pk: 852
# linkname: pseudo__Ir
# uuid: 731ebef7-8521-4b78-9cee-ba2607cd5d92
# label: C19
# description:
# 
# 
# type: uuid: 731ebef7-8521-4b78-9cee-ba2607cd5d92 (pk: 852)
# pk: 852
# linkname: pseudo__O
# uuid: 731ebef7-8521-4b78-9cee-ba2607cd5d92
# label: C19
# description:
# 
# END OF HEADER
%BLOCK LATTICE_CART
      9.0102000000       0.0000000000       0.0000000000
      0.0000000000       9.0102000000       0.0000000000
      0.0000000000       0.0000000000       3.1586000000
%ENDBLOCK LATTICE_CART
%BLOCK POSITIONS_ABS
Ir                       2.2525500000       2.2525500000       1.5793000000
Ir                       2.2525500000       6.7576500000       1.5793000000
Ir                       6.7576500000       2.2525500000       1.5793000000
Ir                       6.7576500000       6.7576500000       1.5793000000
Ir                       0.0000000000       0.0000000000       0.0000000000
Ir                       0.0000000000       4.5051000000       0.0000000000
Ir                       4.5051000000       0.0000000000       0.0000000000
Ir                       4.5051000000       4.5051000000       0.0000000000
O                        0.8663307300       3.6387692700       1.5793000000
O                        0.8663307300       8.1438692700       1.5793000000
O                        5.3714307300       3.6387692700       1.5793000000
O                        5.3714307300       8.1438692700       1.5793000000
O                        3.6387692700       0.8663307300       1.5793000000
O                        3.6387692700       5.3714307300       1.5793000000
O                        8.1438692700       0.8663307300       1.5793000000
O                        8.1438692700       5.3714307300       1.5793000000
O                        1.3862192700       1.3862192700       0.0000000000
O                        1.3862192700       5.8913192700       0.0000000000
O                        5.8913192700       1.3862192700       0.0000000000
O                        5.8913192700       5.8913192700       0.0000000000
O                        3.1188807300       3.1188807300       3.1586000000
O                        3.1188807300       7.6239807300       3.1586000000
O                        7.6239807300       3.1188807300       3.1586000000
O                        7.6239807300       7.6239807300       3.1586000000
%ENDBLOCK POSITIONS_ABS
kpoints_mp_grid     : 2 2 5
symmetry_generate   : True
%BLOCK SPECIES_POT
Ir    C19
O     C19
%ENDBLOCK SPECIES_POT