##### Generated by aiida_castep 15:43:40 20/01/2022 GMT #####
#         author: Bonan Zhu (bz240@cam.ac.uk)
# # AiiDA User: Alp Samli (asamli1998@gmail.com)
# AiiDA profile: alp
# Information of the calculation node
# label: 
# description:
# 
## Information of input nodes used:
# 
# type: uuid: b7d9748f-e42e-44ba-a1a8-70a25452b6ff (pk: 6266)
# pk: 6266
# linkname: structure
# uuid: b7d9748f-e42e-44ba-a1a8-70a25452b6ff
# label: 
# description:
# 
# 
# type: uuid: c12acce2-6743-4d57-842e-3bfafd5d001a (pk: 6305)
# pk: 6305
# linkname: settings
# uuid: c12acce2-6743-4d57-842e-3bfafd5d001a
# label: 
# description:
# 
# 
# type: uuid: 6ed3f52d-f767-4d4a-84d3-d163d24d2e1e (pk: 6306)
# pk: 6306
# linkname: parameters
# uuid: 6ed3f52d-f767-4d4a-84d3-d163d24d2e1e
# label: 
# description:
# 
# 
# type: uuid: 6dd9f3ac-d391-4252-ade2-cbaa4a0c61fe (pk: 6304)
# pk: 6304
# linkname: kpoints
# uuid: 6dd9f3ac-d391-4252-ade2-cbaa4a0c61fe
# label: 
# description:
# 
# 
# type: uuid: 731ebef7-8521-4b78-9cee-ba2607cd5d92 (pk: 852)
# pk: 852
# linkname: pseudo__Si
# uuid: 731ebef7-8521-4b78-9cee-ba2607cd5d92
# label: C19
# description:
# 
# END OF HEADER
%BLOCK LATTICE_CART
      0.0000000000       2.7150000000       2.7150000000
      2.7150000000       0.0000000000       2.7150000000
      2.7150000000       2.7150000000       0.0000000000
%ENDBLOCK LATTICE_CART
%BLOCK POSITIONS_ABS
Si                       0.0000000000       0.0000000000       0.0000000000
Si                       1.3575000000       1.3575000000       1.3575000000
%ENDBLOCK POSITIONS_ABS
kpoints_mp_grid     : 4 4 4
symmetry_generate   : True
%BLOCK SPECIES_POT
Si    C19
%ENDBLOCK SPECIES_POT
