##### Generated by aiida_castep 16:10:41 28/02/2022 GMT #####
#         author: Bonan Zhu (bz240@cam.ac.uk)
# # AiiDA User: Alp Samli (asamli1998@gmail.com)
# AiiDA profile: alp
# Information of the calculation node
# label: 
# description:
# 
## Information of input nodes used:
# 
# type: uuid: 54b83fe9-1cab-4b70-a427-e55507f708f4 (pk: 15826)
# pk: 15826
# linkname: kpoints
# uuid: 54b83fe9-1cab-4b70-a427-e55507f708f4
# label: 
# description:
# 
# 
# type: uuid: 7fd2f60c-d21d-44d8-903e-a9c2b172d2b0 (pk: 15828)
# pk: 15828
# linkname: parameters
# uuid: 7fd2f60c-d21d-44d8-903e-a9c2b172d2b0
# label: 
# description:
# 
# 
# type: uuid: 99c0fc9f-110d-4249-a520-5fffdb8cc3b7 (pk: 15827)
# pk: 15827
# linkname: settings
# uuid: 99c0fc9f-110d-4249-a520-5fffdb8cc3b7
# label: 
# description:
# 
# 
# type: uuid: f4efd56d-5b48-42ad-a55f-3b988e0b5e26 (pk: 15780)
# pk: 15780
# linkname: structure
# uuid: f4efd56d-5b48-42ad-a55f-3b988e0b5e26
# label: 
# description:
# 
# 
# type: uuid: 731ebef7-8521-4b78-9cee-ba2607cd5d92 (pk: 852)
# pk: 852
# linkname: pseudo__Si
# uuid: 731ebef7-8521-4b78-9cee-ba2607cd5d92
# label: C19
# description:
# 
# END OF HEADER
%BLOCK LATTICE_CART
      0.0000000000       2.7150000000       2.7150000000
      2.7150000000       0.0000000000       2.7150000000
      2.7150000000       2.7150000000       0.0000000000
%ENDBLOCK LATTICE_CART
%BLOCK POSITIONS_ABS
Si                       0.0000000000       0.0000000000       0.0000000000
Si                       1.3575000000       1.3575000000       1.3575000000
%ENDBLOCK POSITIONS_ABS
kpoints_mp_grid     : 4 4 4
symmetry_generate   : True
%BLOCK SPECIES_POT
Si    C19
%ENDBLOCK SPECIES_POT
