##### Generated by aiida_castep 10:58:51 03/02/2022 GMT #####
#         author: Bonan Zhu (bz240@cam.ac.uk)
# # AiiDA User: Alp Samli (asamli1998@gmail.com)
# AiiDA profile: alp
# Information of the calculation node
# label: 
# description:
# 
## Information of input nodes used:
# 
# type: uuid: f4c623f4-405e-4690-b874-c793c8ddcef6 (pk: 9806)
# pk: 9806
# linkname: kpoints
# uuid: f4c623f4-405e-4690-b874-c793c8ddcef6
# label: 
# description:
# 
# 
# type: uuid: b96c4169-0c4a-4036-8981-454d484d1127 (pk: 9808)
# pk: 9808
# linkname: parameters
# uuid: b96c4169-0c4a-4036-8981-454d484d1127
# label: 
# description:
# 
# 
# type: uuid: a592b8de-8c28-4bd9-9c77-85ec5dc9aa3d (pk: 9807)
# pk: 9807
# linkname: settings
# uuid: a592b8de-8c28-4bd9-9c77-85ec5dc9aa3d
# label: 
# description:
# 
# 
# type: uuid: e997cdba-ee76-4e0e-81ea-a833b8c4ef2f (pk: 9760)
# pk: 9760
# linkname: structure
# uuid: e997cdba-ee76-4e0e-81ea-a833b8c4ef2f
# label: 
# description:
# 
# 
# type: uuid: 731ebef7-8521-4b78-9cee-ba2607cd5d92 (pk: 852)
# pk: 852
# linkname: pseudo__Si
# uuid: 731ebef7-8521-4b78-9cee-ba2607cd5d92
# label: C19
# description:
# 
# END OF HEADER
%BLOCK LATTICE_CART
      0.0000000000       2.7150000000       2.7150000000
      2.7150000000       0.0000000000       2.7150000000
      2.7150000000       2.7150000000       0.0000000000
%ENDBLOCK LATTICE_CART
%BLOCK POSITIONS_ABS
Si                       0.0000000000       0.0000000000       0.0000000000
Si                       1.3575000000       1.3575000000       1.3575000000
%ENDBLOCK POSITIONS_ABS
kpoints_mp_grid     : 4 4 4
symmetry_generate   : True
%BLOCK SPECIES_POT
Si    C19
%ENDBLOCK SPECIES_POT
