##### Generated by aiida_castep 16:33:55 14/03/2022 GMT #####
#         author: Bonan Zhu (bz240@cam.ac.uk)
# # AiiDA User: Alp Samli (asamli1998@gmail.com)
# AiiDA profile: alp
# Information of the calculation node
# label: 
# description:
# 
## Information of input nodes used:
# 
# type: uuid: ad366f28-08ad-40e3-8deb-f02aecca04d6 (pk: 17810)
# pk: 17810
# linkname: kpoints
# uuid: ad366f28-08ad-40e3-8deb-f02aecca04d6
# label: 
# description:
# 
# 
# type: uuid: 54e131b6-b961-49e9-a1b4-30d7e05561ce (pk: 17812)
# pk: 17812
# linkname: parameters
# uuid: 54e131b6-b961-49e9-a1b4-30d7e05561ce
# label: 
# description:
# 
# 
# type: uuid: 7e812b6d-679e-4b3d-a146-680d2520310a (pk: 17811)
# pk: 17811
# linkname: settings
# uuid: 7e812b6d-679e-4b3d-a146-680d2520310a
# label: 
# description:
# 
# 
# type: uuid: 94464b3b-ba45-4e8c-95db-354227f1bc41 (pk: 17764)
# pk: 17764
# linkname: structure
# uuid: 94464b3b-ba45-4e8c-95db-354227f1bc41
# label: 
# description:
# 
# 
# type: uuid: 731ebef7-8521-4b78-9cee-ba2607cd5d92 (pk: 852)
# pk: 852
# linkname: pseudo__Si
# uuid: 731ebef7-8521-4b78-9cee-ba2607cd5d92
# label: C19
# description:
# 
# END OF HEADER
%BLOCK LATTICE_CART
      0.0000000000       2.7150000000       2.7150000000
      2.7150000000       0.0000000000       2.7150000000
      2.7150000000       2.7150000000       0.0000000000
%ENDBLOCK LATTICE_CART
%BLOCK POSITIONS_ABS
Si                       0.0000000000       0.0000000000       0.0000000000
Si                       1.3575000000       1.3575000000       1.3575000000
%ENDBLOCK POSITIONS_ABS
kpoints_mp_grid     : 4 4 4
symmetry_generate   : True
%BLOCK SPECIES_POT
Si    C19
%ENDBLOCK SPECIES_POT
