##### Generated by aiida_castep 09:58:41 02/11/2023 GMT #####
#         author: Bonan Zhu (zhubonan@outlook.com)
# # AiiDA User: Alp Samli (asamli1998@gmail.com)
# AiiDA profile: alp
# Information of the calculation node
# label: 
# description:
# 
## Information of input nodes used:
# 
# type: uuid: 65ecb22a-63e2-420b-a753-a8ecb3106a3a (pk: 156994)
# pk: 156994
# linkname: kpoints
# uuid: 65ecb22a-63e2-420b-a753-a8ecb3106a3a
# label: 
# description:
# 
# 
# type: uuid: 76d78df4-ece4-417f-94b7-d93493af6357 (pk: 156996)
# pk: 156996
# linkname: parameters
# uuid: 76d78df4-ece4-417f-94b7-d93493af6357
# label: 
# description:
# 
# 
# type: uuid: 34c918ad-0be4-4b12-8c05-c2bdc7c924e4 (pk: 156995)
# pk: 156995
# linkname: settings
# uuid: 34c918ad-0be4-4b12-8c05-c2bdc7c924e4
# label: 
# description:
# 
# 
# type: uuid: c8f84600-8dda-4992-8ed9-2b63a7d0211d (pk: 156878)
# pk: 156878
# linkname: structure
# uuid: c8f84600-8dda-4992-8ed9-2b63a7d0211d
# label: 
# description:
# 
# 
# type: uuid: 731ebef7-8521-4b78-9cee-ba2607cd5d92 (pk: 852)
# pk: 852
# linkname: pseudo__Ti
# uuid: 731ebef7-8521-4b78-9cee-ba2607cd5d92
# label: C19
# description:
# 
# END OF HEADER
%BLOCK LATTICE_CART
      2.2884270000      -3.9636730000       0.0000000000
      2.2884270000       3.9636730000       0.0000000000
      0.0000000000       0.0000000000       2.8286830000
%ENDBLOCK LATTICE_CART
%BLOCK POSITIONS_ABS
Ti                       0.0000000000       0.0000000000       0.0000000000
Ti                       2.2884270000       1.3212269758       1.4143415000
Ti                       2.2884270000      -1.3212269758       1.4143415000
%ENDBLOCK POSITIONS_ABS
kpoints_mp_grid     : 3 3 4
symmetry_generate   : True
%BLOCK SPECIES_POT
Ti    C19
%ENDBLOCK SPECIES_POT