##### Generated by aiida_castep 13:01:19 09/06/2023 BST #####
#         author: Bonan Zhu (zhubonan@outlook.com)
# # AiiDA User: Alp Samli (asamli1998@gmail.com)
# AiiDA profile: alp
# Information of the calculation node
# label: 
# description:
# 
## Information of input nodes used:
# 
# type: uuid: 3689d731-142b-4403-83b8-387adb71b847 (pk: 117620)
# pk: 117620
# linkname: kpoints
# uuid: 3689d731-142b-4403-83b8-387adb71b847
# label: 
# description:
# 
# 
# type: uuid: 6fb20549-ef7e-4a63-86b0-28b71c099bfa (pk: 117622)
# pk: 117622
# linkname: parameters
# uuid: 6fb20549-ef7e-4a63-86b0-28b71c099bfa
# label: 
# description:
# 
# 
# type: uuid: 5be07e3d-06c3-48d9-8d5d-6f41cce30b7f (pk: 117621)
# pk: 117621
# linkname: settings
# uuid: 5be07e3d-06c3-48d9-8d5d-6f41cce30b7f
# label: 
# description:
# 
# 
# type: uuid: 3558c962-5d3b-4767-a5cf-f3603978dcec (pk: 117449)
# pk: 117449
# linkname: structure
# uuid: 3558c962-5d3b-4767-a5cf-f3603978dcec
# label: 
# description:
# 
# 
# type: uuid: 731ebef7-8521-4b78-9cee-ba2607cd5d92 (pk: 852)
# pk: 852
# linkname: pseudo__Ir
# uuid: 731ebef7-8521-4b78-9cee-ba2607cd5d92
# label: C19
# description:
# 
# 
# type: uuid: 731ebef7-8521-4b78-9cee-ba2607cd5d92 (pk: 852)
# pk: 852
# linkname: pseudo__O
# uuid: 731ebef7-8521-4b78-9cee-ba2607cd5d92
# label: C19
# description:
# 
# 
# type: uuid: 731ebef7-8521-4b78-9cee-ba2607cd5d92 (pk: 852)
# pk: 852
# linkname: pseudo__Ti
# uuid: 731ebef7-8521-4b78-9cee-ba2607cd5d92
# label: C19
# description:
# 
# END OF HEADER
%BLOCK LATTICE_CART
      9.0102000000       0.0000000000       0.0000000000
      0.0000000000       9.0102000000       0.0000000000
      0.0000000000       0.0000000000       3.1586000000
%ENDBLOCK LATTICE_CART
%BLOCK POSITIONS_ABS
Ti                       2.2525500000       2.2525500000       1.5793000000
Ti                       2.2525500000       6.7576500000       1.5793000000
Ti                       6.7576500000       2.2525500000       1.5793000000
Ti                       6.7576500000       6.7576500000       1.5793000000
Ti                       0.0000000000       0.0000000000       0.0000000000
Ti                       0.0000000000       4.5051000000       0.0000000000
Ti                       4.5051000000       0.0000000000       0.0000000000
Ir                       4.5051000000       4.5051000000       0.0000000000
O                        0.8663307300       3.6387692700       1.5793000000
O                        0.8663307300       8.1438692700       1.5793000000
O                        5.3714307300       3.6387692700       1.5793000000
O                        5.3714307300       8.1438692700       1.5793000000
O                        3.6387692700       0.8663307300       1.5793000000
O                        3.6387692700       5.3714307300       1.5793000000
O                        8.1438692700       0.8663307300       1.5793000000
O                        8.1438692700       5.3714307300       1.5793000000
O                        1.3862192700       1.3862192700       0.0000000000
O                        1.3862192700       5.8913192700       0.0000000000
O                        5.8913192700       1.3862192700       0.0000000000
O                        5.8913192700       5.8913192700       0.0000000000
O                        3.1188807300       3.1188807300       3.1586000000
O                        3.1188807300       7.6239807300       3.1586000000
O                        7.6239807300       3.1188807300       3.1586000000
O                        7.6239807300       7.6239807300       3.1586000000
%ENDBLOCK POSITIONS_ABS
kpoints_mp_grid     : 2 2 5
symmetry_generate   : True
%BLOCK SPECIES_POT
Ti    C19
Ir    C19
O     C19
%ENDBLOCK SPECIES_POT