##### Generated by aiida_castep 09:58:44 02/11/2023 GMT #####
#         author: Bonan Zhu (zhubonan@outlook.com)
# # AiiDA User: Alp Samli (asamli1998@gmail.com)
# AiiDA profile: alp
# Information of the calculation node
# label: 
# description:
# 
## Information of input nodes used:
# 
# type: uuid: c649046f-f551-46b0-9e67-80fe4ae9d20d (pk: 156998)
# pk: 156998
# linkname: kpoints
# uuid: c649046f-f551-46b0-9e67-80fe4ae9d20d
# label: 
# description:
# 
# 
# type: uuid: 1edde03a-336f-4711-8313-6b561329d226 (pk: 157000)
# pk: 157000
# linkname: parameters
# uuid: 1edde03a-336f-4711-8313-6b561329d226
# label: 
# description:
# 
# 
# type: uuid: e4aa5d9a-d645-4743-b4f0-e3e9949ec519 (pk: 156999)
# pk: 156999
# linkname: settings
# uuid: e4aa5d9a-d645-4743-b4f0-e3e9949ec519
# label: 
# description:
# 
# 
# type: uuid: c8f84600-8dda-4992-8ed9-2b63a7d0211d (pk: 156878)
# pk: 156878
# linkname: structure
# uuid: c8f84600-8dda-4992-8ed9-2b63a7d0211d
# label: 
# description:
# 
# 
# type: uuid: 731ebef7-8521-4b78-9cee-ba2607cd5d92 (pk: 852)
# pk: 852
# linkname: pseudo__Ti
# uuid: 731ebef7-8521-4b78-9cee-ba2607cd5d92
# label: C19
# description:
# 
# END OF HEADER
%BLOCK LATTICE_CART
      2.2884270000      -3.9636730000       0.0000000000
      2.2884270000       3.9636730000       0.0000000000
      0.0000000000       0.0000000000       2.8286830000
%ENDBLOCK LATTICE_CART
%BLOCK POSITIONS_ABS
Ti                       0.0000000000       0.0000000000       0.0000000000
Ti                       2.2884270000       1.3212269758       1.4143415000
Ti                       2.2884270000      -1.3212269758       1.4143415000
%ENDBLOCK POSITIONS_ABS
kpoints_mp_grid     : 4 4 5
symmetry_generate   : True
%BLOCK SPECIES_POT
Ti    C19
%ENDBLOCK SPECIES_POT