##### Generated by aiida_castep 17:04:06 19/08/2022 BST #####
#         author: Bonan Zhu (zhubonan@outlook.com)
# # AiiDA User: Alp Samli (asamli1998@gmail.com)
# AiiDA profile: alp
# Information of the calculation node
# label: 
# description:
# 
## Information of input nodes used:
# 
# type: uuid: e530362e-6f05-4a85-a454-4f7969ea25cd (pk: 34710)
# pk: 34710
# linkname: kpoints
# uuid: e530362e-6f05-4a85-a454-4f7969ea25cd
# label: 
# description:
# 
# 
# type: uuid: 1c40cff7-44c8-4db0-8747-1a7ea57a7b88 (pk: 34772)
# pk: 34772
# linkname: parameters
# uuid: 1c40cff7-44c8-4db0-8747-1a7ea57a7b88
# label: 
# description:
# 
# 
# type: uuid: f49578ab-4cbd-4cf6-9979-3ff81b90c9b1 (pk: 34771)
# pk: 34771
# linkname: settings
# uuid: f49578ab-4cbd-4cf6-9979-3ff81b90c9b1
# label: 
# description:
# 
# 
# type: uuid: 38dcc236-c180-451f-a994-fc7fded47e6d (pk: 34654)
# pk: 34654
# linkname: structure
# uuid: 38dcc236-c180-451f-a994-fc7fded47e6d
# label: 
# description:
# 
# 
# type: uuid: 731ebef7-8521-4b78-9cee-ba2607cd5d92 (pk: 852)
# pk: 852
# linkname: pseudo__Fe
# uuid: 731ebef7-8521-4b78-9cee-ba2607cd5d92
# label: C19
# description:
# 
# END OF HEADER
%BLOCK LATTICE_CART
      0.0000000000       2.8600000000       0.0000000000
      1.4300000000       1.4300000000      -4.2900000000
     -2.8600000000       0.0000000000      -2.8600000000
%ENDBLOCK LATTICE_CART
%BLOCK POSITIONS_ABS
Fe                      -1.4300000000       1.4300000000      -4.2900000000 SPIN=5.000 
Fe                      -1.4300000000       1.4300000000      -1.4300000000 SPIN=-5.000 
Fe                       0.0000000000       2.8600000000      -2.8600000000 SPIN=-5.000 
Fe                       0.0000000000       0.0000000000       0.0000000000 SPIN=5.000 
%ENDBLOCK POSITIONS_ABS
kpoints_mp_grid     : 10 7 7
symmetry_generate   : True
%BLOCK SPECIES_POT
Fe    C19
%ENDBLOCK SPECIES_POT