##### Generated by aiida_castep 16:08:02 19/08/2022 BST #####
#         author: Bonan Zhu (zhubonan@outlook.com)
# # AiiDA User: Alp Samli (asamli1998@gmail.com)
# AiiDA profile: alp
# Information of the calculation node
# label: 
# description:
# 
## Information of input nodes used:
# 
# type: uuid: e530362e-6f05-4a85-a454-4f7969ea25cd (pk: 34710)
# pk: 34710
# linkname: kpoints
# uuid: e530362e-6f05-4a85-a454-4f7969ea25cd
# label: 
# description:
# 
# 
# type: uuid: f01ee29d-8211-4a2a-a1d7-7f765f7f2e52 (pk: 34712)
# pk: 34712
# linkname: parameters
# uuid: f01ee29d-8211-4a2a-a1d7-7f765f7f2e52
# label: 
# description:
# 
# 
# type: uuid: efc06ee8-7a78-4014-b8c0-c81342ba9b97 (pk: 34711)
# pk: 34711
# linkname: settings
# uuid: efc06ee8-7a78-4014-b8c0-c81342ba9b97
# label: 
# description:
# 
# 
# type: uuid: 38dcc236-c180-451f-a994-fc7fded47e6d (pk: 34654)
# pk: 34654
# linkname: structure
# uuid: 38dcc236-c180-451f-a994-fc7fded47e6d
# label: 
# description:
# 
# 
# type: uuid: 731ebef7-8521-4b78-9cee-ba2607cd5d92 (pk: 852)
# pk: 852
# linkname: pseudo__Fe
# uuid: 731ebef7-8521-4b78-9cee-ba2607cd5d92
# label: C19
# description:
# 
# END OF HEADER
%BLOCK LATTICE_CART
      0.0000000000       2.8600000000       0.0000000000
      1.4300000000       1.4300000000      -4.2900000000
     -2.8600000000       0.0000000000      -2.8600000000
%ENDBLOCK LATTICE_CART
%BLOCK POSITIONS_ABS
Fe                      -1.4300000000       1.4300000000      -4.2900000000 SPIN=5.000 
Fe                      -1.4300000000       1.4300000000      -1.4300000000 SPIN=-5.000 
Fe                       0.0000000000       2.8600000000      -2.8600000000 SPIN=-5.000 
Fe                       0.0000000000       0.0000000000       0.0000000000 SPIN=5.000 
%ENDBLOCK POSITIONS_ABS
kpoints_mp_grid     : 10 7 7
symmetry_generate   : True
%BLOCK SPECIES_POT
Fe    C19
%ENDBLOCK SPECIES_POT