##### Generated by aiida_castep 15:27:40 02/11/2023 GMT #####
#         author: Bonan Zhu (zhubonan@outlook.com)
# # AiiDA User: Alp Samli (asamli1998@gmail.com)
# AiiDA profile: alp
# Information of the calculation node
# label: 
# description:
# 
## Information of input nodes used:
# 
# type: uuid: dcbe12b5-af5a-475b-a289-41804c49d612 (pk: 157328)
# pk: 157328
# linkname: kpoints
# uuid: dcbe12b5-af5a-475b-a289-41804c49d612
# label: 
# description:
# 
# 
# type: uuid: 9897ac1e-66b7-49d0-8e7f-588a4ef71d6b (pk: 157352)
# pk: 157352
# linkname: parameters
# uuid: 9897ac1e-66b7-49d0-8e7f-588a4ef71d6b
# label: 
# description:
# 
# 
# type: uuid: be890531-d0fe-4645-8043-a6d4e351116b (pk: 157351)
# pk: 157351
# linkname: settings
# uuid: be890531-d0fe-4645-8043-a6d4e351116b
# label: 
# description:
# 
# 
# type: uuid: 3888bcc6-e1a3-4fff-9692-e4c23057fb93 (pk: 156877)
# pk: 156877
# linkname: structure
# uuid: 3888bcc6-e1a3-4fff-9692-e4c23057fb93
# label: 
# description:
# 
# 
# type: uuid: 731ebef7-8521-4b78-9cee-ba2607cd5d92 (pk: 852)
# pk: 852
# linkname: pseudo__O
# uuid: 731ebef7-8521-4b78-9cee-ba2607cd5d92
# label: C19
# description:
# 
# END OF HEADER
%BLOCK LATTICE_CART
     30.0100000000       0.0000000000       0.0000000000
      0.0000000000      30.0000000000       0.0000000000
      0.0000000000       0.0000000000      29.9900000000
%ENDBLOCK LATTICE_CART
%BLOCK POSITIONS_ABS
O                       15.0000000000      15.0000000000      15.0000000000
O                       15.0000000000      15.0000000000      16.2100000000
%ENDBLOCK POSITIONS_ABS
kpoints_mp_grid     : 1 1 1
symmetry_generate   : True
%BLOCK SPECIES_POT
O     C19
%ENDBLOCK SPECIES_POT