##### Generated by aiida_castep 09:59:08 02/11/2023 GMT #####
#         author: Bonan Zhu (zhubonan@outlook.com)
# # AiiDA User: Alp Samli (asamli1998@gmail.com)
# AiiDA profile: alp
# Information of the calculation node
# label: 
# description:
# 
## Information of input nodes used:
# 
# type: uuid: bf6e596a-29d6-4ccc-b3dc-749528e9f0a8 (pk: 157030)
# pk: 157030
# linkname: kpoints
# uuid: bf6e596a-29d6-4ccc-b3dc-749528e9f0a8
# label: 
# description:
# 
# 
# type: uuid: 819f2b13-0a9e-4c77-8fdc-6e40f56747c2 (pk: 157032)
# pk: 157032
# linkname: parameters
# uuid: 819f2b13-0a9e-4c77-8fdc-6e40f56747c2
# label: 
# description:
# 
# 
# type: uuid: 087fd290-4107-4d5c-867d-e5a4fc8461b9 (pk: 157031)
# pk: 157031
# linkname: settings
# uuid: 087fd290-4107-4d5c-867d-e5a4fc8461b9
# label: 
# description:
# 
# 
# type: uuid: fe2965e5-53c3-4374-bde2-2f000f69b786 (pk: 156879)
# pk: 156879
# linkname: structure
# uuid: fe2965e5-53c3-4374-bde2-2f000f69b786
# label: 
# description:
# 
# 
# type: uuid: 731ebef7-8521-4b78-9cee-ba2607cd5d92 (pk: 852)
# pk: 852
# linkname: pseudo__O
# uuid: 731ebef7-8521-4b78-9cee-ba2607cd5d92
# label: C19
# description:
# 
# 
# type: uuid: 731ebef7-8521-4b78-9cee-ba2607cd5d92 (pk: 852)
# pk: 852
# linkname: pseudo__Ti
# uuid: 731ebef7-8521-4b78-9cee-ba2607cd5d92
# label: C19
# description:
# 
# END OF HEADER
%BLOCK LATTICE_CART
      1.9212100000       4.9382260000       0.0000000000
     -1.9212100000       4.9382260000       0.0000000000
      0.0000000000       0.1709760000       9.3463610000
%ENDBLOCK LATTICE_CART
%BLOCK POSITIONS_ABS
Ti                       0.0000000000       1.4434198761       8.9134375585
Ti                       0.0000000000       8.6040081239       0.4329234415
Ti                       0.0000000000       0.6473323838       5.9733901642
Ti                       0.0000000000       9.4000956162       3.3729708358
Ti                       0.0000000000       7.8420439108       6.8805573092
Ti                       0.0000000000       2.2053840892       2.4658036908
O                        0.0000000000       6.8384519973       8.8346383889
O                        0.0000000000       3.2089760027       0.5117226111
O                        0.0000000000       2.5148365996       7.0648114699
O                        0.0000000000       7.5325914004       2.2815495301
O                        0.0000000000       5.9380709671       6.1532982670
O                        0.0000000000       4.1093570329       3.1930627330
O                        0.0000000000       9.5926309363       7.9201623896
O                        0.0000000000       0.4547970637       1.4261986104
O                        0.0000000000       8.6983785105       5.2056333398
O                        0.0000000000       1.3490494895       4.1407276602
%ENDBLOCK POSITIONS_ABS
kpoints_mp_grid     : 5 5 2
symmetry_generate   : True
%BLOCK SPECIES_POT
Ti    C19
O     C19
%ENDBLOCK SPECIES_POT