##### Generated by aiida_castep 16:34:53 14/03/2022 GMT #####
#         author: Bonan Zhu (bz240@cam.ac.uk)
# # AiiDA User: Alp Samli (asamli1998@gmail.com)
# AiiDA profile: alp
# Information of the calculation node
# label: 
# description:
# 
## Information of input nodes used:
# 
# type: uuid: 8f14ddcb-7ff4-4c49-ba6f-0fa027717e40 (pk: 17951)
# pk: 17951
# linkname: kpoints
# uuid: 8f14ddcb-7ff4-4c49-ba6f-0fa027717e40
# label: 
# description:
# 
# 
# type: uuid: 1df14ffe-5d7e-46cc-a065-8ac964737541 (pk: 17953)
# pk: 17953
# linkname: parameters
# uuid: 1df14ffe-5d7e-46cc-a065-8ac964737541
# label: 
# description:
# 
# 
# type: uuid: b70b15d1-5b5a-4892-bfbf-356691f006e3 (pk: 17952)
# pk: 17952
# linkname: settings
# uuid: b70b15d1-5b5a-4892-bfbf-356691f006e3
# label: 
# description:
# 
# 
# type: uuid: 94464b3b-ba45-4e8c-95db-354227f1bc41 (pk: 17764)
# pk: 17764
# linkname: structure
# uuid: 94464b3b-ba45-4e8c-95db-354227f1bc41
# label: 
# description:
# 
# 
# type: uuid: 731ebef7-8521-4b78-9cee-ba2607cd5d92 (pk: 852)
# pk: 852
# linkname: pseudo__Si
# uuid: 731ebef7-8521-4b78-9cee-ba2607cd5d92
# label: C19
# description:
# 
# END OF HEADER
%BLOCK LATTICE_CART
      0.0000000000       2.7150000000       2.7150000000
      2.7150000000       0.0000000000       2.7150000000
      2.7150000000       2.7150000000       0.0000000000
%ENDBLOCK LATTICE_CART
%BLOCK POSITIONS_ABS
Si                       0.0000000000       0.0000000000       0.0000000000
Si                       1.3575000000       1.3575000000       1.3575000000
%ENDBLOCK POSITIONS_ABS
kpoints_mp_grid     : 7 7 7
symmetry_generate   : True
%BLOCK SPECIES_POT
Si    C19
%ENDBLOCK SPECIES_POT
