##### Generated by aiida_castep 15:44:09 20/01/2022 GMT #####
#         author: Bonan Zhu (bz240@cam.ac.uk)
# # AiiDA User: Alp Samli (asamli1998@gmail.com)
# AiiDA profile: alp
# Information of the calculation node
# label: 
# description:
# 
## Information of input nodes used:
# 
# type: uuid: b7d9748f-e42e-44ba-a1a8-70a25452b6ff (pk: 6266)
# pk: 6266
# linkname: structure
# uuid: b7d9748f-e42e-44ba-a1a8-70a25452b6ff
# label: 
# description:
# 
# 
# type: uuid: 3264d65d-a012-4bff-a5cd-222c42a88a36 (pk: 6413)
# pk: 6413
# linkname: settings
# uuid: 3264d65d-a012-4bff-a5cd-222c42a88a36
# label: 
# description:
# 
# 
# type: uuid: 28969e6f-bfef-4b0c-996f-dc8bd180ada9 (pk: 6414)
# pk: 6414
# linkname: parameters
# uuid: 28969e6f-bfef-4b0c-996f-dc8bd180ada9
# label: 
# description:
# 
# 
# type: uuid: 6da06564-ccab-4624-b646-cc7a27b3dc09 (pk: 6412)
# pk: 6412
# linkname: kpoints
# uuid: 6da06564-ccab-4624-b646-cc7a27b3dc09
# label: 
# description:
# 
# 
# type: uuid: 731ebef7-8521-4b78-9cee-ba2607cd5d92 (pk: 852)
# pk: 852
# linkname: pseudo__Si
# uuid: 731ebef7-8521-4b78-9cee-ba2607cd5d92
# label: C19
# description:
# 
# END OF HEADER
%BLOCK LATTICE_CART
      0.0000000000       2.7150000000       2.7150000000
      2.7150000000       0.0000000000       2.7150000000
      2.7150000000       2.7150000000       0.0000000000
%ENDBLOCK LATTICE_CART
%BLOCK POSITIONS_ABS
Si                       0.0000000000       0.0000000000       0.0000000000
Si                       1.3575000000       1.3575000000       1.3575000000
%ENDBLOCK POSITIONS_ABS
kpoints_mp_grid     : 8 8 8
symmetry_generate   : True
%BLOCK SPECIES_POT
Si    C19
%ENDBLOCK SPECIES_POT
