##### Generated by aiida_castep 16:03:52 23/02/2022 GMT #####
#         author: Bonan Zhu (bz240@cam.ac.uk)
# # AiiDA User: Alp Samli (asamli1998@gmail.com)
# AiiDA profile: alp
# Information of the calculation node
# label: 
# description:
# 
## Information of input nodes used:
# 
# type: uuid: a6addae7-5628-491d-8b71-b4d0c528a584 (pk: 14015)
# pk: 14015
# linkname: kpoints
# uuid: a6addae7-5628-491d-8b71-b4d0c528a584
# label: 
# description:
# 
# 
# type: uuid: 6c6a4fab-ba2c-45af-9e75-fa2848da3981 (pk: 14017)
# pk: 14017
# linkname: parameters
# uuid: 6c6a4fab-ba2c-45af-9e75-fa2848da3981
# label: 
# description:
# 
# 
# type: uuid: ac1eff98-7417-40b9-999b-6ebf038507ce (pk: 14016)
# pk: 14016
# linkname: settings
# uuid: ac1eff98-7417-40b9-999b-6ebf038507ce
# label: 
# description:
# 
# 
# type: uuid: 9dacdc07-1379-4acf-adae-d5eff25e026b (pk: 13913)
# pk: 13913
# linkname: structure
# uuid: 9dacdc07-1379-4acf-adae-d5eff25e026b
# label: 
# description:
# 
# 
# type: uuid: 731ebef7-8521-4b78-9cee-ba2607cd5d92 (pk: 852)
# pk: 852
# linkname: pseudo__Si
# uuid: 731ebef7-8521-4b78-9cee-ba2607cd5d92
# label: C19
# description:
# 
# END OF HEADER
%BLOCK LATTICE_CART
      0.0000000000       2.7150000000       2.7150000000
      2.7150000000       0.0000000000       2.7150000000
      2.7150000000       2.7150000000       0.0000000000
%ENDBLOCK LATTICE_CART
%BLOCK POSITIONS_ABS
Si                       0.0000000000       0.0000000000       0.0000000000
Si                       1.3575000000       1.3575000000       1.3575000000
%ENDBLOCK POSITIONS_ABS
kpoints_mp_grid     : 7 7 7
symmetry_generate   : True
%BLOCK SPECIES_POT
Si    C19
%ENDBLOCK SPECIES_POT
