##### Generated by aiida_castep 16:34:25 14/03/2022 GMT #####
#         author: Bonan Zhu (bz240@cam.ac.uk)
# # AiiDA User: Alp Samli (asamli1998@gmail.com)
# AiiDA profile: alp
# Information of the calculation node
# label: 
# description:
# 
## Information of input nodes used:
# 
# type: uuid: 0c97a9fb-65ae-489d-b891-50dc0156fdc2 (pk: 17888)
# pk: 17888
# linkname: kpoints
# uuid: 0c97a9fb-65ae-489d-b891-50dc0156fdc2
# label: 
# description:
# 
# 
# type: uuid: 97d27549-2d04-4988-96ac-6ca6c3d1a162 (pk: 17890)
# pk: 17890
# linkname: parameters
# uuid: 97d27549-2d04-4988-96ac-6ca6c3d1a162
# label: 
# description:
# 
# 
# type: uuid: 94534263-dba9-425a-a527-9537e3ca7ae4 (pk: 17889)
# pk: 17889
# linkname: settings
# uuid: 94534263-dba9-425a-a527-9537e3ca7ae4
# label: 
# description:
# 
# 
# type: uuid: 94464b3b-ba45-4e8c-95db-354227f1bc41 (pk: 17764)
# pk: 17764
# linkname: structure
# uuid: 94464b3b-ba45-4e8c-95db-354227f1bc41
# label: 
# description:
# 
# 
# type: uuid: 731ebef7-8521-4b78-9cee-ba2607cd5d92 (pk: 852)
# pk: 852
# linkname: pseudo__Si
# uuid: 731ebef7-8521-4b78-9cee-ba2607cd5d92
# label: C19
# description:
# 
# END OF HEADER
%BLOCK LATTICE_CART
      0.0000000000       2.7150000000       2.7150000000
      2.7150000000       0.0000000000       2.7150000000
      2.7150000000       2.7150000000       0.0000000000
%ENDBLOCK LATTICE_CART
%BLOCK POSITIONS_ABS
Si                       0.0000000000       0.0000000000       0.0000000000
Si                       1.3575000000       1.3575000000       1.3575000000
%ENDBLOCK POSITIONS_ABS
kpoints_mp_grid     : 4 4 4
symmetry_generate   : True
%BLOCK SPECIES_POT
Si    C19
%ENDBLOCK SPECIES_POT
