##### Generated by aiida_castep 16:11:11 28/02/2022 GMT #####
#         author: Bonan Zhu (bz240@cam.ac.uk)
# # AiiDA User: Alp Samli (asamli1998@gmail.com)
# AiiDA profile: alp
# Information of the calculation node
# label: 
# description:
# 
## Information of input nodes used:
# 
# type: uuid: ebbd9d96-d495-4722-a3c4-ad17ce530bac (pk: 15904)
# pk: 15904
# linkname: kpoints
# uuid: ebbd9d96-d495-4722-a3c4-ad17ce530bac
# label: 
# description:
# 
# 
# type: uuid: 274eb295-73d6-4320-8dbd-6c9f8b0cb96b (pk: 15906)
# pk: 15906
# linkname: parameters
# uuid: 274eb295-73d6-4320-8dbd-6c9f8b0cb96b
# label: 
# description:
# 
# 
# type: uuid: 00770406-90d0-4f60-bad4-ffeb5d22fd00 (pk: 15905)
# pk: 15905
# linkname: settings
# uuid: 00770406-90d0-4f60-bad4-ffeb5d22fd00
# label: 
# description:
# 
# 
# type: uuid: f4efd56d-5b48-42ad-a55f-3b988e0b5e26 (pk: 15780)
# pk: 15780
# linkname: structure
# uuid: f4efd56d-5b48-42ad-a55f-3b988e0b5e26
# label: 
# description:
# 
# 
# type: uuid: 731ebef7-8521-4b78-9cee-ba2607cd5d92 (pk: 852)
# pk: 852
# linkname: pseudo__Si
# uuid: 731ebef7-8521-4b78-9cee-ba2607cd5d92
# label: C19
# description:
# 
# END OF HEADER
%BLOCK LATTICE_CART
      0.0000000000       2.7150000000       2.7150000000
      2.7150000000       0.0000000000       2.7150000000
      2.7150000000       2.7150000000       0.0000000000
%ENDBLOCK LATTICE_CART
%BLOCK POSITIONS_ABS
Si                       0.0000000000       0.0000000000       0.0000000000
Si                       1.3575000000       1.3575000000       1.3575000000
%ENDBLOCK POSITIONS_ABS
kpoints_mp_grid     : 4 4 4
symmetry_generate   : True
%BLOCK SPECIES_POT
Si    C19
%ENDBLOCK SPECIES_POT
