##### Generated by aiida_castep 10:59:19 03/02/2022 GMT #####
#         author: Bonan Zhu (bz240@cam.ac.uk)
# # AiiDA User: Alp Samli (asamli1998@gmail.com)
# AiiDA profile: alp
# Information of the calculation node
# label: 
# description:
# 
## Information of input nodes used:
# 
# type: uuid: 08372b33-0f14-4574-87b2-1372a25dfd93 (pk: 9881)
# pk: 9881
# linkname: kpoints
# uuid: 08372b33-0f14-4574-87b2-1372a25dfd93
# label: 
# description:
# 
# 
# type: uuid: 0ea47c99-b631-458e-b495-526a0ef58182 (pk: 9883)
# pk: 9883
# linkname: parameters
# uuid: 0ea47c99-b631-458e-b495-526a0ef58182
# label: 
# description:
# 
# 
# type: uuid: ceb13688-37c0-4053-843a-86d07690d77c (pk: 9882)
# pk: 9882
# linkname: settings
# uuid: ceb13688-37c0-4053-843a-86d07690d77c
# label: 
# description:
# 
# 
# type: uuid: e997cdba-ee76-4e0e-81ea-a833b8c4ef2f (pk: 9760)
# pk: 9760
# linkname: structure
# uuid: e997cdba-ee76-4e0e-81ea-a833b8c4ef2f
# label: 
# description:
# 
# 
# type: uuid: 731ebef7-8521-4b78-9cee-ba2607cd5d92 (pk: 852)
# pk: 852
# linkname: pseudo__Si
# uuid: 731ebef7-8521-4b78-9cee-ba2607cd5d92
# label: C19
# description:
# 
# END OF HEADER
%BLOCK LATTICE_CART
      0.0000000000       2.7150000000       2.7150000000
      2.7150000000       0.0000000000       2.7150000000
      2.7150000000       2.7150000000       0.0000000000
%ENDBLOCK LATTICE_CART
%BLOCK POSITIONS_ABS
Si                       0.0000000000       0.0000000000       0.0000000000
Si                       1.3575000000       1.3575000000       1.3575000000
%ENDBLOCK POSITIONS_ABS
kpoints_mp_grid     : 4 4 4
symmetry_generate   : True
%BLOCK SPECIES_POT
Si    C19
%ENDBLOCK SPECIES_POT
