##### Generated by aiida_castep 16:08:02 19/08/2022 BST #####
#         author: Bonan Zhu (zhubonan@outlook.com)
# # AiiDA User: Alp Samli (asamli1998@gmail.com)
# AiiDA profile: alp
# Information of the calculation node
# label: 
# description:
# 
## Information of input nodes used:
# 
# type: uuid: ccfe15f7-9b77-4d80-ad6d-d94339b5642b (pk: 34714)
# pk: 34714
# linkname: kpoints
# uuid: ccfe15f7-9b77-4d80-ad6d-d94339b5642b
# label: 
# description:
# 
# 
# type: uuid: b2bcc294-d352-46f5-9841-6efe73bd309c (pk: 34716)
# pk: 34716
# linkname: parameters
# uuid: b2bcc294-d352-46f5-9841-6efe73bd309c
# label: 
# description:
# 
# 
# type: uuid: f922e339-8fac-49d9-aca7-c3b42f514050 (pk: 34715)
# pk: 34715
# linkname: settings
# uuid: f922e339-8fac-49d9-aca7-c3b42f514050
# label: 
# description:
# 
# 
# type: uuid: 9ae2dd03-65c0-41e0-af6c-f60ec8d4407d (pk: 34656)
# pk: 34656
# linkname: structure
# uuid: 9ae2dd03-65c0-41e0-af6c-f60ec8d4407d
# label: 
# description:
# 
# 
# type: uuid: 731ebef7-8521-4b78-9cee-ba2607cd5d92 (pk: 852)
# pk: 852
# linkname: pseudo__Fe
# uuid: 731ebef7-8521-4b78-9cee-ba2607cd5d92
# label: C19
# description:
# 
# END OF HEADER
%BLOCK LATTICE_CART
     -1.4300000000       1.4300000000       1.4300000000
      1.4300000000      -1.4300000000       1.4300000000
      5.7200000000       5.7200000000       0.0000000000
%ENDBLOCK LATTICE_CART
%BLOCK POSITIONS_ABS
Fe                       0.0000000000       0.0000000000       0.0000000000 SPIN=5.000 
Fe                       1.4300000000       1.4300000000       1.4300000000 SPIN=5.000 
Fe                       2.8600000000       2.8600000000       0.0000000000 SPIN=-5.000 
Fe                       4.2900000000       4.2900000000       1.4300000000 SPIN=-5.000 
%ENDBLOCK POSITIONS_ABS
kpoints_mp_grid     : 11 11 4
symmetry_generate   : True
%BLOCK SPECIES_POT
Fe    C19
%ENDBLOCK SPECIES_POT