##### Generated by aiida_castep 13:54:55 25/01/2022 GMT #####
#         author: Bonan Zhu (bz240@cam.ac.uk)
# # AiiDA User: Alp Samli (asamli1998@gmail.com)
# AiiDA profile: alp
# Information of the calculation node
# label: Si_pbesol_dos+bands
# description:
# 
## Information of input nodes used:
# 
# type: uuid: 8f1ef80b-4cd0-4064-b3cf-4eada39eb39d (pk: 6712)
# pk: 6712
# linkname: structure
# uuid: 8f1ef80b-4cd0-4064-b3cf-4eada39eb39d
# label: 
# description:
# 
# 
# type: uuid: e15341be-000b-4c12-8767-a2de6de28a26 (pk: 6716)
# pk: 6716
# linkname: settings
# uuid: e15341be-000b-4c12-8767-a2de6de28a26
# label: 
# description:
# 
# 
# type: uuid: ccf45bf0-34f2-4667-b4d6-f7b6e2eb794f (pk: 6717)
# pk: 6717
# linkname: parameters
# uuid: ccf45bf0-34f2-4667-b4d6-f7b6e2eb794f
# label: 
# description:
# 
# 
# type: uuid: 699c6f34-6fb1-4a24-a76a-77a3142a943e (pk: 6715)
# pk: 6715
# linkname: kpoints
# uuid: 699c6f34-6fb1-4a24-a76a-77a3142a943e
# label: 
# description:
# 
# 
# type: uuid: 731ebef7-8521-4b78-9cee-ba2607cd5d92 (pk: 852)
# pk: 852
# linkname: pseudo__Si
# uuid: 731ebef7-8521-4b78-9cee-ba2607cd5d92
# label: C19
# description:
# 
# END OF HEADER
%BLOCK LATTICE_CART
      0.0000000000       2.7150000000       2.7150000000
      2.7150000000       0.0000000000       2.7150000000
      2.7150000000       2.7150000000       0.0000000000
%ENDBLOCK LATTICE_CART
%BLOCK POSITIONS_ABS
Si                       0.0000000000       0.0000000000       2.7150000000
Si                       1.3575000000       4.0725000000       1.3575000000
%ENDBLOCK POSITIONS_ABS
kpoints_mp_grid     : 4 4 4
symmetry_generate   : True
%BLOCK SPECIES_POT
Si    C19
%ENDBLOCK SPECIES_POT
%BLOCK SPECTRAL_KPOINT_LIST
      0.0000000000       0.0000000000       0.0000000000   0.00495049504950
      0.0111111111      -0.0000000000       0.0111111111   0.00495049504950
      0.0222222222      -0.0000000000       0.0222222222   0.00495049504950
      0.0333333333       0.0000000000       0.0333333333   0.00495049504950
      0.0444444444      -0.0000000000       0.0444444444   0.00495049504950
      0.0555555556      -0.0000000000       0.0555555556   0.00495049504950
      0.0666666667       0.0000000000       0.0666666667   0.00495049504950
      0.0777777778      -0.0000000000       0.0777777778   0.00495049504950
      0.0888888889      -0.0000000000       0.0888888889   0.00495049504950
      0.1000000000      -0.0000000000       0.1000000000   0.00495049504950
      0.1111111111      -0.0000000000       0.1111111111   0.00495049504950
      0.1222222222       0.0000000000       0.1222222222   0.00495049504950
      0.1333333333       0.0000000000       0.1333333333   0.00495049504950
      0.1444444444       0.0000000000       0.1444444444   0.00495049504950
      0.1555555556      -0.0000000000       0.1555555556   0.00495049504950
      0.1666666667       0.0000000000       0.1666666667   0.00495049504950
      0.1777777778      -0.0000000000       0.1777777778   0.00495049504950
      0.1888888889      -0.0000000000       0.1888888889   0.00495049504950
      0.2000000000      -0.0000000000       0.2000000000   0.00495049504950
      0.2111111111       0.0000000000       0.2111111111   0.00495049504950
      0.2222222222      -0.0000000000       0.2222222222   0.00495049504950
      0.2333333333      -0.0000000000       0.2333333333   0.00495049504950
      0.2444444444       0.0000000000       0.2444444444   0.00495049504950
      0.2555555556       0.0000000000       0.2555555556   0.00495049504950
      0.2666666667       0.0000000000       0.2666666667   0.00495049504950
      0.2777777778       0.0000000000       0.2777777778   0.00495049504950
      0.2888888889       0.0000000000       0.2888888889   0.00495049504950
      0.3000000000       0.0000000000       0.3000000000   0.00495049504950
      0.3111111111      -0.0000000000       0.3111111111   0.00495049504950
      0.3222222222      -0.0000000000       0.3222222222   0.00495049504950
      0.3333333333       0.0000000000       0.3333333333   0.00495049504950
      0.3444444444       0.0000000000       0.3444444444   0.00495049504950
      0.3555555556      -0.0000000000       0.3555555556   0.00495049504950
      0.3666666667       0.0000000000       0.3666666667   0.00495049504950
      0.3777777778      -0.0000000000       0.3777777778   0.00495049504950
      0.3888888889      -0.0000000000       0.3888888889   0.00495049504950
      0.4000000000      -0.0000000000       0.4000000000   0.00495049504950
      0.4111111111       0.0000000000       0.4111111111   0.00495049504950
      0.4222222222       0.0000000000       0.4222222222   0.00495049504950
      0.4333333333      -0.0000000000       0.4333333333   0.00495049504950
      0.4444444444      -0.0000000000       0.4444444444   0.00495049504950
      0.4555555556      -0.0000000000       0.4555555556   0.00495049504950
      0.4666666667      -0.0000000000       0.4666666667   0.00495049504950
      0.4777777778       0.0000000000       0.4777777778   0.00495049504950
      0.4888888889       0.0000000000       0.4888888889   0.00495049504950
      0.5000000000       0.0000000000       0.5000000000   0.00495049504950
      0.5083333333       0.0166666667       0.5083333333   0.00495049504950
      0.5166666667       0.0333333333       0.5166666667   0.00495049504950
      0.5250000000       0.0500000000       0.5250000000   0.00495049504950
      0.5333333333       0.0666666667       0.5333333333   0.00495049504950
      0.5416666667       0.0833333333       0.5416666667   0.00495049504950
      0.5500000000       0.1000000000       0.5500000000   0.00495049504950
      0.5583333333       0.1166666667       0.5583333333   0.00495049504950
      0.5666666667       0.1333333333       0.5666666667   0.00495049504950
      0.5750000000       0.1500000000       0.5750000000   0.00495049504950
      0.5833333333       0.1666666667       0.5833333333   0.00495049504950
      0.5916666667       0.1833333333       0.5916666667   0.00495049504950
      0.6000000000       0.2000000000       0.6000000000   0.00495049504950
      0.6083333333       0.2166666667       0.6083333333   0.00495049504950
      0.6166666667       0.2333333333       0.6166666667   0.00495049504950
      0.6250000000       0.2500000000       0.6250000000   0.00495049504950
      0.3750000000       0.3750000000       0.7500000000   0.00495049504950
      0.3671875000       0.3671875000       0.7343750000   0.00495049504950
      0.3593750000       0.3593750000       0.7187500000   0.00495049504950
      0.3515625000       0.3515625000       0.7031250000   0.00495049504950
      0.3437500000       0.3437500000       0.6875000000   0.00495049504950
      0.3359375000       0.3359375000       0.6718750000   0.00495049504950
      0.3281250000       0.3281250000       0.6562500000   0.00495049504950
      0.3203125000       0.3203125000       0.6406250000   0.00495049504950
      0.3125000000       0.3125000000       0.6250000000   0.00495049504950
      0.3046875000       0.3046875000       0.6093750000   0.00495049504950
      0.2968750000       0.2968750000       0.5937500000   0.00495049504950
      0.2890625000       0.2890625000       0.5781250000   0.00495049504950
      0.2812500000       0.2812500000       0.5625000000   0.00495049504950
      0.2734375000       0.2734375000       0.5468750000   0.00495049504950
      0.2656250000       0.2656250000       0.5312500000   0.00495049504950
      0.2578125000       0.2578125000       0.5156250000   0.00495049504950
      0.2500000000       0.2500000000       0.5000000000   0.00495049504950
      0.2421875000       0.2421875000       0.4843750000   0.00495049504950
      0.2343750000       0.2343750000       0.4687500000   0.00495049504950
      0.2265625000       0.2265625000       0.4531250000   0.00495049504950
      0.2187500000       0.2187500000       0.4375000000   0.00495049504950
      0.2109375000       0.2109375000       0.4218750000   0.00495049504950
      0.2031250000       0.2031250000       0.4062500000   0.00495049504950
      0.1953125000       0.1953125000       0.3906250000   0.00495049504950
      0.1875000000       0.1875000000       0.3750000000   0.00495049504950
      0.1796875000       0.1796875000       0.3593750000   0.00495049504950
      0.1718750000       0.1718750000       0.3437500000   0.00495049504950
      0.1640625000       0.1640625000       0.3281250000   0.00495049504950
      0.1562500000       0.1562500000       0.3125000000   0.00495049504950
      0.1484375000       0.1484375000       0.2968750000   0.00495049504950
      0.1406250000       0.1406250000       0.2812500000   0.00495049504950
      0.1328125000       0.1328125000       0.2656250000   0.00495049504950
      0.1250000000       0.1250000000       0.2500000000   0.00495049504950
      0.1171875000       0.1171875000       0.2343750000   0.00495049504950
      0.1093750000       0.1093750000       0.2187500000   0.00495049504950
      0.1015625000       0.1015625000       0.2031250000   0.00495049504950
      0.0937500000       0.0937500000       0.1875000000   0.00495049504950
      0.0859375000       0.0859375000       0.1718750000   0.00495049504950
      0.0781250000       0.0781250000       0.1562500000   0.00495049504950
      0.0703125000       0.0703125000       0.1406250000   0.00495049504950
      0.0625000000       0.0625000000       0.1250000000   0.00495049504950
      0.0546875000       0.0546875000       0.1093750000   0.00495049504950
      0.0468750000       0.0468750000       0.0937500000   0.00495049504950
      0.0390625000       0.0390625000       0.0781250000   0.00495049504950
      0.0312500000       0.0312500000       0.0625000000   0.00495049504950
      0.0234375000       0.0234375000       0.0468750000   0.00495049504950
      0.0156250000       0.0156250000       0.0312500000   0.00495049504950
      0.0078125000       0.0078125000       0.0156250000   0.00495049504950
      0.0000000000       0.0000000000       0.0000000000   0.00495049504950
      0.0128205128       0.0128205128       0.0128205128   0.00495049504950
      0.0256410256       0.0256410256       0.0256410256   0.00495049504950
      0.0384615385       0.0384615385       0.0384615385   0.00495049504950
      0.0512820513       0.0512820513       0.0512820513   0.00495049504950
      0.0641025641       0.0641025641       0.0641025641   0.00495049504950
      0.0769230769       0.0769230769       0.0769230769   0.00495049504950
      0.0897435897       0.0897435897       0.0897435897   0.00495049504950
      0.1025641026       0.1025641026       0.1025641026   0.00495049504950
      0.1153846154       0.1153846154       0.1153846154   0.00495049504950
      0.1282051282       0.1282051282       0.1282051282   0.00495049504950
      0.1410256410       0.1410256410       0.1410256410   0.00495049504950
      0.1538461538       0.1538461538       0.1538461538   0.00495049504950
      0.1666666667       0.1666666667       0.1666666667   0.00495049504950
      0.1794871795       0.1794871795       0.1794871795   0.00495049504950
      0.1923076923       0.1923076923       0.1923076923   0.00495049504950
      0.2051282051       0.2051282051       0.2051282051   0.00495049504950
      0.2179487179       0.2179487179       0.2179487179   0.00495049504950
      0.2307692308       0.2307692308       0.2307692308   0.00495049504950
      0.2435897436       0.2435897436       0.2435897436   0.00495049504950
      0.2564102564       0.2564102564       0.2564102564   0.00495049504950
      0.2692307692       0.2692307692       0.2692307692   0.00495049504950
      0.2820512821       0.2820512821       0.2820512821   0.00495049504950
      0.2948717949       0.2948717949       0.2948717949   0.00495049504950
      0.3076923077       0.3076923077       0.3076923077   0.00495049504950
      0.3205128205       0.3205128205       0.3205128205   0.00495049504950
      0.3333333333       0.3333333333       0.3333333333   0.00495049504950
      0.3461538462       0.3461538462       0.3461538462   0.00495049504950
      0.3589743590       0.3589743590       0.3589743590   0.00495049504950
      0.3717948718       0.3717948718       0.3717948718   0.00495049504950
      0.3846153846       0.3846153846       0.3846153846   0.00495049504950
      0.3974358974       0.3974358974       0.3974358974   0.00495049504950
      0.4102564103       0.4102564103       0.4102564103   0.00495049504950
      0.4230769231       0.4230769231       0.4230769231   0.00495049504950
      0.4358974359       0.4358974359       0.4358974359   0.00495049504950
      0.4487179487       0.4487179487       0.4487179487   0.00495049504950
      0.4615384615       0.4615384615       0.4615384615   0.00495049504950
      0.4743589744       0.4743589744       0.4743589744   0.00495049504950
      0.4871794872       0.4871794872       0.4871794872   0.00495049504950
      0.5000000000       0.5000000000       0.5000000000   0.00495049504950
      0.5000000000       0.4919354839       0.5080645161   0.00495049504950
      0.5000000000       0.4838709677       0.5161290323   0.00495049504950
      0.5000000000       0.4758064516       0.5241935484   0.00495049504950
      0.5000000000       0.4677419355       0.5322580645   0.00495049504950
      0.5000000000       0.4596774194       0.5403225806   0.00495049504950
      0.5000000000       0.4516129032       0.5483870968   0.00495049504950
      0.5000000000       0.4435483871       0.5564516129   0.00495049504950
      0.5000000000       0.4354838710       0.5645161290   0.00495049504950
      0.5000000000       0.4274193548       0.5725806452   0.00495049504950
      0.5000000000       0.4193548387       0.5806451613   0.00495049504950
      0.5000000000       0.4112903226       0.5887096774   0.00495049504950
      0.5000000000       0.4032258065       0.5967741935   0.00495049504950
      0.5000000000       0.3951612903       0.6048387097   0.00495049504950
      0.5000000000       0.3870967742       0.6129032258   0.00495049504950
      0.5000000000       0.3790322581       0.6209677419   0.00495049504950
      0.5000000000       0.3709677419       0.6290322581   0.00495049504950
      0.5000000000       0.3629032258       0.6370967742   0.00495049504950
      0.5000000000       0.3548387097       0.6451612903   0.00495049504950
      0.5000000000       0.3467741935       0.6532258065   0.00495049504950
      0.5000000000       0.3387096774       0.6612903226   0.00495049504950
      0.5000000000       0.3306451613       0.6693548387   0.00495049504950
      0.5000000000       0.3225806452       0.6774193548   0.00495049504950
      0.5000000000       0.3145161290       0.6854838710   0.00495049504950
      0.5000000000       0.3064516129       0.6935483871   0.00495049504950
      0.5000000000       0.2983870968       0.7016129032   0.00495049504950
      0.5000000000       0.2903225806       0.7096774194   0.00495049504950
      0.5000000000       0.2822580645       0.7177419355   0.00495049504950
      0.5000000000       0.2741935484       0.7258064516   0.00495049504950
      0.5000000000       0.2661290323       0.7338709677   0.00495049504950
      0.5000000000       0.2580645161       0.7419354839   0.00495049504950
      0.5000000000       0.2500000000       0.7500000000   0.00495049504950
      0.5000000000       0.2386363636       0.7386363636   0.00495049504950
      0.5000000000       0.2272727273       0.7272727273   0.00495049504950
      0.5000000000       0.2159090909       0.7159090909   0.00495049504950
      0.5000000000       0.2045454545       0.7045454545   0.00495049504950
      0.5000000000       0.1931818182       0.6931818182   0.00495049504950
      0.5000000000       0.1818181818       0.6818181818   0.00495049504950
      0.5000000000       0.1704545455       0.6704545455   0.00495049504950
      0.5000000000       0.1590909091       0.6590909091   0.00495049504950
      0.5000000000       0.1477272727       0.6477272727   0.00495049504950
      0.5000000000       0.1363636364       0.6363636364   0.00495049504950
      0.5000000000       0.1250000000       0.6250000000   0.00495049504950
      0.5000000000       0.1136363636       0.6136363636   0.00495049504950
      0.5000000000       0.1022727273       0.6022727273   0.00495049504950
      0.5000000000       0.0909090909       0.5909090909   0.00495049504950
      0.5000000000       0.0795454545       0.5795454545   0.00495049504950
      0.5000000000       0.0681818182       0.5681818182   0.00495049504950
      0.5000000000       0.0568181818       0.5568181818   0.00495049504950
      0.5000000000       0.0454545455       0.5454545455   0.00495049504950
      0.5000000000       0.0340909091       0.5340909091   0.00495049504950
      0.5000000000       0.0227272727       0.5227272727   0.00495049504950
      0.5000000000       0.0113636364       0.5113636364   0.00495049504950
      0.5000000000       0.0000000000       0.5000000000   0.00495049504950
%ENDBLOCK SPECTRAL_KPOINT_LIST
