##### Generated by aiida_castep 15:43:40 20/01/2022 GMT #####
#         author: Bonan Zhu (bz240@cam.ac.uk)
# # AiiDA User: Alp Samli (asamli1998@gmail.com)
# AiiDA profile: alp
# Information of the calculation node
# label: 
# description:
# 
## Information of input nodes used:
# 
# type: uuid: b7d9748f-e42e-44ba-a1a8-70a25452b6ff (pk: 6266)
# pk: 6266
# linkname: structure
# uuid: b7d9748f-e42e-44ba-a1a8-70a25452b6ff
# label: 
# description:
# 
# 
# type: uuid: 21ade575-6016-4e64-a483-3169f2c41f97 (pk: 6301)
# pk: 6301
# linkname: settings
# uuid: 21ade575-6016-4e64-a483-3169f2c41f97
# label: 
# description:
# 
# 
# type: uuid: f48b9259-c73f-4628-8c7a-794248300cee (pk: 6302)
# pk: 6302
# linkname: parameters
# uuid: f48b9259-c73f-4628-8c7a-794248300cee
# label: 
# description:
# 
# 
# type: uuid: f0bb2b9a-27c2-4f54-b30d-483c42a74e05 (pk: 6300)
# pk: 6300
# linkname: kpoints
# uuid: f0bb2b9a-27c2-4f54-b30d-483c42a74e05
# label: 
# description:
# 
# 
# type: uuid: 731ebef7-8521-4b78-9cee-ba2607cd5d92 (pk: 852)
# pk: 852
# linkname: pseudo__Si
# uuid: 731ebef7-8521-4b78-9cee-ba2607cd5d92
# label: C19
# description:
# 
# END OF HEADER
%BLOCK LATTICE_CART
      0.0000000000       2.7150000000       2.7150000000
      2.7150000000       0.0000000000       2.7150000000
      2.7150000000       2.7150000000       0.0000000000
%ENDBLOCK LATTICE_CART
%BLOCK POSITIONS_ABS
Si                       0.0000000000       0.0000000000       0.0000000000
Si                       1.3575000000       1.3575000000       1.3575000000
%ENDBLOCK POSITIONS_ABS
kpoints_mp_grid     : 4 4 4
symmetry_generate   : True
%BLOCK SPECIES_POT
Si    C19
%ENDBLOCK SPECIES_POT
