##### Generated by aiida_castep 10:58:51 03/02/2022 GMT #####
#         author: Bonan Zhu (bz240@cam.ac.uk)
# # AiiDA User: Alp Samli (asamli1998@gmail.com)
# AiiDA profile: alp
# Information of the calculation node
# label: 
# description:
# 
## Information of input nodes used:
# 
# type: uuid: 53b69187-9449-4a3f-b1b9-e227864874b6 (pk: 9802)
# pk: 9802
# linkname: kpoints
# uuid: 53b69187-9449-4a3f-b1b9-e227864874b6
# label: 
# description:
# 
# 
# type: uuid: f6bd0312-23c7-49a8-8561-e973fd551e8b (pk: 9804)
# pk: 9804
# linkname: parameters
# uuid: f6bd0312-23c7-49a8-8561-e973fd551e8b
# label: 
# description:
# 
# 
# type: uuid: efe53ebe-cd64-46f9-be65-fd0e07db9a5a (pk: 9803)
# pk: 9803
# linkname: settings
# uuid: efe53ebe-cd64-46f9-be65-fd0e07db9a5a
# label: 
# description:
# 
# 
# type: uuid: e997cdba-ee76-4e0e-81ea-a833b8c4ef2f (pk: 9760)
# pk: 9760
# linkname: structure
# uuid: e997cdba-ee76-4e0e-81ea-a833b8c4ef2f
# label: 
# description:
# 
# 
# type: uuid: 731ebef7-8521-4b78-9cee-ba2607cd5d92 (pk: 852)
# pk: 852
# linkname: pseudo__Si
# uuid: 731ebef7-8521-4b78-9cee-ba2607cd5d92
# label: C19
# description:
# 
# END OF HEADER
%BLOCK LATTICE_CART
      0.0000000000       2.7150000000       2.7150000000
      2.7150000000       0.0000000000       2.7150000000
      2.7150000000       2.7150000000       0.0000000000
%ENDBLOCK LATTICE_CART
%BLOCK POSITIONS_ABS
Si                       0.0000000000       0.0000000000       0.0000000000
Si                       1.3575000000       1.3575000000       1.3575000000
%ENDBLOCK POSITIONS_ABS
kpoints_mp_grid     : 4 4 4
symmetry_generate   : True
%BLOCK SPECIES_POT
Si    C19
%ENDBLOCK SPECIES_POT
