##### Generated by aiida_castep 16:33:55 14/03/2022 GMT #####
#         author: Bonan Zhu (bz240@cam.ac.uk)
# # AiiDA User: Alp Samli (asamli1998@gmail.com)
# AiiDA profile: alp
# Information of the calculation node
# label: 
# description:
# 
## Information of input nodes used:
# 
# type: uuid: 678767ac-18ea-4c17-86dd-6ccab0fef32c (pk: 17806)
# pk: 17806
# linkname: kpoints
# uuid: 678767ac-18ea-4c17-86dd-6ccab0fef32c
# label: 
# description:
# 
# 
# type: uuid: 33242e8f-0faa-4184-862e-9e92dea2c5ea (pk: 17808)
# pk: 17808
# linkname: parameters
# uuid: 33242e8f-0faa-4184-862e-9e92dea2c5ea
# label: 
# description:
# 
# 
# type: uuid: 9791d32e-17b1-40a0-b96c-ae12098ae08f (pk: 17807)
# pk: 17807
# linkname: settings
# uuid: 9791d32e-17b1-40a0-b96c-ae12098ae08f
# label: 
# description:
# 
# 
# type: uuid: 94464b3b-ba45-4e8c-95db-354227f1bc41 (pk: 17764)
# pk: 17764
# linkname: structure
# uuid: 94464b3b-ba45-4e8c-95db-354227f1bc41
# label: 
# description:
# 
# 
# type: uuid: 731ebef7-8521-4b78-9cee-ba2607cd5d92 (pk: 852)
# pk: 852
# linkname: pseudo__Si
# uuid: 731ebef7-8521-4b78-9cee-ba2607cd5d92
# label: C19
# description:
# 
# END OF HEADER
%BLOCK LATTICE_CART
      0.0000000000       2.7150000000       2.7150000000
      2.7150000000       0.0000000000       2.7150000000
      2.7150000000       2.7150000000       0.0000000000
%ENDBLOCK LATTICE_CART
%BLOCK POSITIONS_ABS
Si                       0.0000000000       0.0000000000       0.0000000000
Si                       1.3575000000       1.3575000000       1.3575000000
%ENDBLOCK POSITIONS_ABS
kpoints_mp_grid     : 4 4 4
symmetry_generate   : True
%BLOCK SPECIES_POT
Si    C19
%ENDBLOCK SPECIES_POT
