##### Generated by aiida_castep 09:31:10 25/02/2022 GMT #####
#         author: Bonan Zhu (bz240@cam.ac.uk)
# # AiiDA User: Alp Samli (asamli1998@gmail.com)
# AiiDA profile: alp
# Information of the calculation node
# label: Fe_pbesol_dos+bands
# description:
# 
## Information of input nodes used:
# 
# type: uuid: f31771f5-d8c4-47d8-84ee-23e5f30ff408 (pk: 14442)
# pk: 14442
# linkname: kpoints
# uuid: f31771f5-d8c4-47d8-84ee-23e5f30ff408
# label: 
# description:
# 
# 
# type: uuid: b7420ea1-91af-4889-93df-65da883666a2 (pk: 14444)
# pk: 14444
# linkname: parameters
# uuid: b7420ea1-91af-4889-93df-65da883666a2
# label: 
# description:
# 
# 
# type: uuid: 72b08639-418b-475f-9fa2-49530336beac (pk: 14443)
# pk: 14443
# linkname: settings
# uuid: 72b08639-418b-475f-9fa2-49530336beac
# label: 
# description:
# 
# 
# type: uuid: 1530df71-f40c-4622-b554-a0903adad015 (pk: 14439)
# pk: 14439
# linkname: structure
# uuid: 1530df71-f40c-4622-b554-a0903adad015
# label: 
# description:
# 
# 
# type: uuid: 731ebef7-8521-4b78-9cee-ba2607cd5d92 (pk: 852)
# pk: 852
# linkname: pseudo__Fe
# uuid: 731ebef7-8521-4b78-9cee-ba2607cd5d92
# label: C19
# description:
# 
# END OF HEADER
%BLOCK LATTICE_CART
     -1.4350000000       1.4350000000       1.4350000000
      1.4350000000      -1.4350000000       1.4350000000
      1.4350000000       1.4350000000      -1.4350000000
%ENDBLOCK LATTICE_CART
%BLOCK POSITIONS_ABS
Fe                       0.0000000000       0.0000000000       0.0000000000
%ENDBLOCK POSITIONS_ABS
kpoints_mp_grid     : 13 13 13
symmetry_generate   : True
%BLOCK SPECIES_POT
Fe    C19
%ENDBLOCK SPECIES_POT
%BLOCK SPECTRAL_KPOINT_LIST
      0.0000000000       0.0000000000       0.0000000000   0.00251256281407
      0.0058139535      -0.0058139535       0.0058139535   0.00251256281407
      0.0116279070      -0.0116279070       0.0116279070   0.00251256281407
      0.0174418605      -0.0174418605       0.0174418605   0.00251256281407
      0.0232558140      -0.0232558140       0.0232558140   0.00251256281407
      0.0290697674      -0.0290697674       0.0290697674   0.00251256281407
      0.0348837209      -0.0348837209       0.0348837209   0.00251256281407
      0.0406976744      -0.0406976744       0.0406976744   0.00251256281407
      0.0465116279      -0.0465116279       0.0465116279   0.00251256281407
      0.0523255814      -0.0523255814       0.0523255814   0.00251256281407
      0.0581395349      -0.0581395349       0.0581395349   0.00251256281407
      0.0639534884      -0.0639534884       0.0639534884   0.00251256281407
      0.0697674419      -0.0697674419       0.0697674419   0.00251256281407
      0.0755813953      -0.0755813953       0.0755813953   0.00251256281407
      0.0813953488      -0.0813953488       0.0813953488   0.00251256281407
      0.0872093023      -0.0872093023       0.0872093023   0.00251256281407
      0.0930232558      -0.0930232558       0.0930232558   0.00251256281407
      0.0988372093      -0.0988372093       0.0988372093   0.00251256281407
      0.1046511628      -0.1046511628       0.1046511628   0.00251256281407
      0.1104651163      -0.1104651163       0.1104651163   0.00251256281407
      0.1162790698      -0.1162790698       0.1162790698   0.00251256281407
      0.1220930233      -0.1220930233       0.1220930233   0.00251256281407
      0.1279069767      -0.1279069767       0.1279069767   0.00251256281407
      0.1337209302      -0.1337209302       0.1337209302   0.00251256281407
      0.1395348837      -0.1395348837       0.1395348837   0.00251256281407
      0.1453488372      -0.1453488372       0.1453488372   0.00251256281407
      0.1511627907      -0.1511627907       0.1511627907   0.00251256281407
      0.1569767442      -0.1569767442       0.1569767442   0.00251256281407
      0.1627906977      -0.1627906977       0.1627906977   0.00251256281407
      0.1686046512      -0.1686046512       0.1686046512   0.00251256281407
      0.1744186047      -0.1744186047       0.1744186047   0.00251256281407
      0.1802325581      -0.1802325581       0.1802325581   0.00251256281407
      0.1860465116      -0.1860465116       0.1860465116   0.00251256281407
      0.1918604651      -0.1918604651       0.1918604651   0.00251256281407
      0.1976744186      -0.1976744186       0.1976744186   0.00251256281407
      0.2034883721      -0.2034883721       0.2034883721   0.00251256281407
      0.2093023256      -0.2093023256       0.2093023256   0.00251256281407
      0.2151162791      -0.2151162791       0.2151162791   0.00251256281407
      0.2209302326      -0.2209302326       0.2209302326   0.00251256281407
      0.2267441860      -0.2267441860       0.2267441860   0.00251256281407
      0.2325581395      -0.2325581395       0.2325581395   0.00251256281407
      0.2383720930      -0.2383720930       0.2383720930   0.00251256281407
      0.2441860465      -0.2441860465       0.2441860465   0.00251256281407
      0.2500000000      -0.2500000000       0.2500000000   0.00251256281407
      0.2558139535      -0.2558139535       0.2558139535   0.00251256281407
      0.2616279070      -0.2616279070       0.2616279070   0.00251256281407
      0.2674418605      -0.2674418605       0.2674418605   0.00251256281407
      0.2732558140      -0.2732558140       0.2732558140   0.00251256281407
      0.2790697674      -0.2790697674       0.2790697674   0.00251256281407
      0.2848837209      -0.2848837209       0.2848837209   0.00251256281407
      0.2906976744      -0.2906976744       0.2906976744   0.00251256281407
      0.2965116279      -0.2965116279       0.2965116279   0.00251256281407
      0.3023255814      -0.3023255814       0.3023255814   0.00251256281407
      0.3081395349      -0.3081395349       0.3081395349   0.00251256281407
      0.3139534884      -0.3139534884       0.3139534884   0.00251256281407
      0.3197674419      -0.3197674419       0.3197674419   0.00251256281407
      0.3255813953      -0.3255813953       0.3255813953   0.00251256281407
      0.3313953488      -0.3313953488       0.3313953488   0.00251256281407
      0.3372093023      -0.3372093023       0.3372093023   0.00251256281407
      0.3430232558      -0.3430232558       0.3430232558   0.00251256281407
      0.3488372093      -0.3488372093       0.3488372093   0.00251256281407
      0.3546511628      -0.3546511628       0.3546511628   0.00251256281407
      0.3604651163      -0.3604651163       0.3604651163   0.00251256281407
      0.3662790698      -0.3662790698       0.3662790698   0.00251256281407
      0.3720930233      -0.3720930233       0.3720930233   0.00251256281407
      0.3779069767      -0.3779069767       0.3779069767   0.00251256281407
      0.3837209302      -0.3837209302       0.3837209302   0.00251256281407
      0.3895348837      -0.3895348837       0.3895348837   0.00251256281407
      0.3953488372      -0.3953488372       0.3953488372   0.00251256281407
      0.4011627907      -0.4011627907       0.4011627907   0.00251256281407
      0.4069767442      -0.4069767442       0.4069767442   0.00251256281407
      0.4127906977      -0.4127906977       0.4127906977   0.00251256281407
      0.4186046512      -0.4186046512       0.4186046512   0.00251256281407
      0.4244186047      -0.4244186047       0.4244186047   0.00251256281407
      0.4302325581      -0.4302325581       0.4302325581   0.00251256281407
      0.4360465116      -0.4360465116       0.4360465116   0.00251256281407
      0.4418604651      -0.4418604651       0.4418604651   0.00251256281407
      0.4476744186      -0.4476744186       0.4476744186   0.00251256281407
      0.4534883721      -0.4534883721       0.4534883721   0.00251256281407
      0.4593023256      -0.4593023256       0.4593023256   0.00251256281407
      0.4651162791      -0.4651162791       0.4651162791   0.00251256281407
      0.4709302326      -0.4709302326       0.4709302326   0.00251256281407
      0.4767441860      -0.4767441860       0.4767441860   0.00251256281407
      0.4825581395      -0.4825581395       0.4825581395   0.00251256281407
      0.4883720930      -0.4883720930       0.4883720930   0.00251256281407
      0.4941860465      -0.4941860465       0.4941860465   0.00251256281407
      0.5000000000      -0.5000000000       0.5000000000   0.00251256281407
      0.4916666667      -0.4916666667       0.5000000000   0.00251256281407
      0.4833333333      -0.4833333333       0.5000000000   0.00251256281407
      0.4750000000      -0.4750000000       0.5000000000   0.00251256281407
      0.4666666667      -0.4666666667       0.5000000000   0.00251256281407
      0.4583333333      -0.4583333333       0.5000000000   0.00251256281407
      0.4500000000      -0.4500000000       0.5000000000   0.00251256281407
      0.4416666667      -0.4416666667       0.5000000000   0.00251256281407
      0.4333333333      -0.4333333333       0.5000000000   0.00251256281407
      0.4250000000      -0.4250000000       0.5000000000   0.00251256281407
      0.4166666667      -0.4166666667       0.5000000000   0.00251256281407
      0.4083333333      -0.4083333333       0.5000000000   0.00251256281407
      0.4000000000      -0.4000000000       0.5000000000   0.00251256281407
      0.3916666667      -0.3916666667       0.5000000000   0.00251256281407
      0.3833333333      -0.3833333333       0.5000000000   0.00251256281407
      0.3750000000      -0.3750000000       0.5000000000   0.00251256281407
      0.3666666667      -0.3666666667       0.5000000000   0.00251256281407
      0.3583333333      -0.3583333333       0.5000000000   0.00251256281407
      0.3500000000      -0.3500000000       0.5000000000   0.00251256281407
      0.3416666667      -0.3416666667       0.5000000000   0.00251256281407
      0.3333333333      -0.3333333333       0.5000000000   0.00251256281407
      0.3250000000      -0.3250000000       0.5000000000   0.00251256281407
      0.3166666667      -0.3166666667       0.5000000000   0.00251256281407
      0.3083333333      -0.3083333333       0.5000000000   0.00251256281407
      0.3000000000      -0.3000000000       0.5000000000   0.00251256281407
      0.2916666667      -0.2916666667       0.5000000000   0.00251256281407
      0.2833333333      -0.2833333333       0.5000000000   0.00251256281407
      0.2750000000      -0.2750000000       0.5000000000   0.00251256281407
      0.2666666667      -0.2666666667       0.5000000000   0.00251256281407
      0.2583333333      -0.2583333333       0.5000000000   0.00251256281407
      0.2500000000      -0.2500000000       0.5000000000   0.00251256281407
      0.2416666667      -0.2416666667       0.5000000000   0.00251256281407
      0.2333333333      -0.2333333333       0.5000000000   0.00251256281407
      0.2250000000      -0.2250000000       0.5000000000   0.00251256281407
      0.2166666667      -0.2166666667       0.5000000000   0.00251256281407
      0.2083333333      -0.2083333333       0.5000000000   0.00251256281407
      0.2000000000      -0.2000000000       0.5000000000   0.00251256281407
      0.1916666667      -0.1916666667       0.5000000000   0.00251256281407
      0.1833333333      -0.1833333333       0.5000000000   0.00251256281407
      0.1750000000      -0.1750000000       0.5000000000   0.00251256281407
      0.1666666667      -0.1666666667       0.5000000000   0.00251256281407
      0.1583333333      -0.1583333333       0.5000000000   0.00251256281407
      0.1500000000      -0.1500000000       0.5000000000   0.00251256281407
      0.1416666667      -0.1416666667       0.5000000000   0.00251256281407
      0.1333333333      -0.1333333333       0.5000000000   0.00251256281407
      0.1250000000      -0.1250000000       0.5000000000   0.00251256281407
      0.1166666667      -0.1166666667       0.5000000000   0.00251256281407
      0.1083333333      -0.1083333333       0.5000000000   0.00251256281407
      0.1000000000      -0.1000000000       0.5000000000   0.00251256281407
      0.0916666667      -0.0916666667       0.5000000000   0.00251256281407
      0.0833333333      -0.0833333333       0.5000000000   0.00251256281407
      0.0750000000      -0.0750000000       0.5000000000   0.00251256281407
      0.0666666667      -0.0666666667       0.5000000000   0.00251256281407
      0.0583333333      -0.0583333333       0.5000000000   0.00251256281407
      0.0500000000      -0.0500000000       0.5000000000   0.00251256281407
      0.0416666667      -0.0416666667       0.5000000000   0.00251256281407
      0.0333333333      -0.0333333333       0.5000000000   0.00251256281407
      0.0250000000      -0.0250000000       0.5000000000   0.00251256281407
      0.0166666667      -0.0166666667       0.5000000000   0.00251256281407
      0.0083333333      -0.0083333333       0.5000000000   0.00251256281407
      0.0000000000       0.0000000000       0.5000000000   0.00251256281407
      0.0000000000       0.0000000000       0.4916666667   0.00251256281407
      0.0000000000       0.0000000000       0.4833333333   0.00251256281407
      0.0000000000       0.0000000000       0.4750000000   0.00251256281407
      0.0000000000       0.0000000000       0.4666666667   0.00251256281407
      0.0000000000       0.0000000000       0.4583333333   0.00251256281407
      0.0000000000       0.0000000000       0.4500000000   0.00251256281407
      0.0000000000       0.0000000000       0.4416666667   0.00251256281407
      0.0000000000       0.0000000000       0.4333333333   0.00251256281407
      0.0000000000       0.0000000000       0.4250000000   0.00251256281407
      0.0000000000       0.0000000000       0.4166666667   0.00251256281407
      0.0000000000       0.0000000000       0.4083333333   0.00251256281407
      0.0000000000       0.0000000000       0.4000000000   0.00251256281407
      0.0000000000       0.0000000000       0.3916666667   0.00251256281407
      0.0000000000       0.0000000000       0.3833333333   0.00251256281407
      0.0000000000       0.0000000000       0.3750000000   0.00251256281407
      0.0000000000       0.0000000000       0.3666666667   0.00251256281407
      0.0000000000       0.0000000000       0.3583333333   0.00251256281407
      0.0000000000       0.0000000000       0.3500000000   0.00251256281407
      0.0000000000       0.0000000000       0.3416666667   0.00251256281407
      0.0000000000       0.0000000000       0.3333333333   0.00251256281407
      0.0000000000       0.0000000000       0.3250000000   0.00251256281407
      0.0000000000       0.0000000000       0.3166666667   0.00251256281407
      0.0000000000       0.0000000000       0.3083333333   0.00251256281407
      0.0000000000       0.0000000000       0.3000000000   0.00251256281407
      0.0000000000       0.0000000000       0.2916666667   0.00251256281407
      0.0000000000       0.0000000000       0.2833333333   0.00251256281407
      0.0000000000       0.0000000000       0.2750000000   0.00251256281407
      0.0000000000       0.0000000000       0.2666666667   0.00251256281407
      0.0000000000       0.0000000000       0.2583333333   0.00251256281407
      0.0000000000       0.0000000000       0.2500000000   0.00251256281407
      0.0000000000       0.0000000000       0.2416666667   0.00251256281407
      0.0000000000       0.0000000000       0.2333333333   0.00251256281407
      0.0000000000       0.0000000000       0.2250000000   0.00251256281407
      0.0000000000       0.0000000000       0.2166666667   0.00251256281407
      0.0000000000       0.0000000000       0.2083333333   0.00251256281407
      0.0000000000       0.0000000000       0.2000000000   0.00251256281407
      0.0000000000       0.0000000000       0.1916666667   0.00251256281407
      0.0000000000       0.0000000000       0.1833333333   0.00251256281407
      0.0000000000       0.0000000000       0.1750000000   0.00251256281407
      0.0000000000       0.0000000000       0.1666666667   0.00251256281407
      0.0000000000       0.0000000000       0.1583333333   0.00251256281407
      0.0000000000       0.0000000000       0.1500000000   0.00251256281407
      0.0000000000       0.0000000000       0.1416666667   0.00251256281407
      0.0000000000       0.0000000000       0.1333333333   0.00251256281407
      0.0000000000       0.0000000000       0.1250000000   0.00251256281407
      0.0000000000       0.0000000000       0.1166666667   0.00251256281407
      0.0000000000       0.0000000000       0.1083333333   0.00251256281407
      0.0000000000       0.0000000000       0.1000000000   0.00251256281407
      0.0000000000       0.0000000000       0.0916666667   0.00251256281407
      0.0000000000       0.0000000000       0.0833333333   0.00251256281407
      0.0000000000       0.0000000000       0.0750000000   0.00251256281407
      0.0000000000       0.0000000000       0.0666666667   0.00251256281407
      0.0000000000       0.0000000000       0.0583333333   0.00251256281407
      0.0000000000       0.0000000000       0.0500000000   0.00251256281407
      0.0000000000       0.0000000000       0.0416666667   0.00251256281407
      0.0000000000       0.0000000000       0.0333333333   0.00251256281407
      0.0000000000       0.0000000000       0.0250000000   0.00251256281407
      0.0000000000       0.0000000000       0.0166666667   0.00251256281407
      0.0000000000       0.0000000000       0.0083333333   0.00251256281407
      0.0000000000       0.0000000000       0.0000000000   0.00251256281407
      0.0033783784       0.0033783784       0.0033783784   0.00251256281407
      0.0067567568       0.0067567568       0.0067567568   0.00251256281407
      0.0101351351       0.0101351351       0.0101351351   0.00251256281407
      0.0135135135       0.0135135135       0.0135135135   0.00251256281407
      0.0168918919       0.0168918919       0.0168918919   0.00251256281407
      0.0202702703       0.0202702703       0.0202702703   0.00251256281407
      0.0236486486       0.0236486486       0.0236486486   0.00251256281407
      0.0270270270       0.0270270270       0.0270270270   0.00251256281407
      0.0304054054       0.0304054054       0.0304054054   0.00251256281407
      0.0337837838       0.0337837838       0.0337837838   0.00251256281407
      0.0371621622       0.0371621622       0.0371621622   0.00251256281407
      0.0405405405       0.0405405405       0.0405405405   0.00251256281407
      0.0439189189       0.0439189189       0.0439189189   0.00251256281407
      0.0472972973       0.0472972973       0.0472972973   0.00251256281407
      0.0506756757       0.0506756757       0.0506756757   0.00251256281407
      0.0540540541       0.0540540541       0.0540540541   0.00251256281407
      0.0574324324       0.0574324324       0.0574324324   0.00251256281407
      0.0608108108       0.0608108108       0.0608108108   0.00251256281407
      0.0641891892       0.0641891892       0.0641891892   0.00251256281407
      0.0675675676       0.0675675676       0.0675675676   0.00251256281407
      0.0709459459       0.0709459459       0.0709459459   0.00251256281407
      0.0743243243       0.0743243243       0.0743243243   0.00251256281407
      0.0777027027       0.0777027027       0.0777027027   0.00251256281407
      0.0810810811       0.0810810811       0.0810810811   0.00251256281407
      0.0844594595       0.0844594595       0.0844594595   0.00251256281407
      0.0878378378       0.0878378378       0.0878378378   0.00251256281407
      0.0912162162       0.0912162162       0.0912162162   0.00251256281407
      0.0945945946       0.0945945946       0.0945945946   0.00251256281407
      0.0979729730       0.0979729730       0.0979729730   0.00251256281407
      0.1013513514       0.1013513514       0.1013513514   0.00251256281407
      0.1047297297       0.1047297297       0.1047297297   0.00251256281407
      0.1081081081       0.1081081081       0.1081081081   0.00251256281407
      0.1114864865       0.1114864865       0.1114864865   0.00251256281407
      0.1148648649       0.1148648649       0.1148648649   0.00251256281407
      0.1182432432       0.1182432432       0.1182432432   0.00251256281407
      0.1216216216       0.1216216216       0.1216216216   0.00251256281407
      0.1250000000       0.1250000000       0.1250000000   0.00251256281407
      0.1283783784       0.1283783784       0.1283783784   0.00251256281407
      0.1317567568       0.1317567568       0.1317567568   0.00251256281407
      0.1351351351       0.1351351351       0.1351351351   0.00251256281407
      0.1385135135       0.1385135135       0.1385135135   0.00251256281407
      0.1418918919       0.1418918919       0.1418918919   0.00251256281407
      0.1452702703       0.1452702703       0.1452702703   0.00251256281407
      0.1486486486       0.1486486486       0.1486486486   0.00251256281407
      0.1520270270       0.1520270270       0.1520270270   0.00251256281407
      0.1554054054       0.1554054054       0.1554054054   0.00251256281407
      0.1587837838       0.1587837838       0.1587837838   0.00251256281407
      0.1621621622       0.1621621622       0.1621621622   0.00251256281407
      0.1655405405       0.1655405405       0.1655405405   0.00251256281407
      0.1689189189       0.1689189189       0.1689189189   0.00251256281407
      0.1722972973       0.1722972973       0.1722972973   0.00251256281407
      0.1756756757       0.1756756757       0.1756756757   0.00251256281407
      0.1790540541       0.1790540541       0.1790540541   0.00251256281407
      0.1824324324       0.1824324324       0.1824324324   0.00251256281407
      0.1858108108       0.1858108108       0.1858108108   0.00251256281407
      0.1891891892       0.1891891892       0.1891891892   0.00251256281407
      0.1925675676       0.1925675676       0.1925675676   0.00251256281407
      0.1959459459       0.1959459459       0.1959459459   0.00251256281407
      0.1993243243       0.1993243243       0.1993243243   0.00251256281407
      0.2027027027       0.2027027027       0.2027027027   0.00251256281407
      0.2060810811       0.2060810811       0.2060810811   0.00251256281407
      0.2094594595       0.2094594595       0.2094594595   0.00251256281407
      0.2128378378       0.2128378378       0.2128378378   0.00251256281407
      0.2162162162       0.2162162162       0.2162162162   0.00251256281407
      0.2195945946       0.2195945946       0.2195945946   0.00251256281407
      0.2229729730       0.2229729730       0.2229729730   0.00251256281407
      0.2263513514       0.2263513514       0.2263513514   0.00251256281407
      0.2297297297       0.2297297297       0.2297297297   0.00251256281407
      0.2331081081       0.2331081081       0.2331081081   0.00251256281407
      0.2364864865       0.2364864865       0.2364864865   0.00251256281407
      0.2398648649       0.2398648649       0.2398648649   0.00251256281407
      0.2432432432       0.2432432432       0.2432432432   0.00251256281407
      0.2466216216       0.2466216216       0.2466216216   0.00251256281407
      0.2500000000       0.2500000000       0.2500000000   0.00251256281407
      0.2533783784       0.2398648649       0.2533783784   0.00251256281407
      0.2567567568       0.2297297297       0.2567567568   0.00251256281407
      0.2601351351       0.2195945946       0.2601351351   0.00251256281407
      0.2635135135       0.2094594595       0.2635135135   0.00251256281407
      0.2668918919       0.1993243243       0.2668918919   0.00251256281407
      0.2702702703       0.1891891892       0.2702702703   0.00251256281407
      0.2736486486       0.1790540541       0.2736486486   0.00251256281407
      0.2770270270       0.1689189189       0.2770270270   0.00251256281407
      0.2804054054       0.1587837838       0.2804054054   0.00251256281407
      0.2837837838       0.1486486486       0.2837837838   0.00251256281407
      0.2871621622       0.1385135135       0.2871621622   0.00251256281407
      0.2905405405       0.1283783784       0.2905405405   0.00251256281407
      0.2939189189       0.1182432432       0.2939189189   0.00251256281407
      0.2972972973       0.1081081081       0.2972972973   0.00251256281407
      0.3006756757       0.0979729730       0.3006756757   0.00251256281407
      0.3040540541       0.0878378378       0.3040540541   0.00251256281407
      0.3074324324       0.0777027027       0.3074324324   0.00251256281407
      0.3108108108       0.0675675676       0.3108108108   0.00251256281407
      0.3141891892       0.0574324324       0.3141891892   0.00251256281407
      0.3175675676       0.0472972973       0.3175675676   0.00251256281407
      0.3209459459       0.0371621622       0.3209459459   0.00251256281407
      0.3243243243       0.0270270270       0.3243243243   0.00251256281407
      0.3277027027       0.0168918919       0.3277027027   0.00251256281407
      0.3310810811       0.0067567568       0.3310810811   0.00251256281407
      0.3344594595      -0.0033783784       0.3344594595   0.00251256281407
      0.3378378378      -0.0135135135       0.3378378378   0.00251256281407
      0.3412162162      -0.0236486486       0.3412162162   0.00251256281407
      0.3445945946      -0.0337837838       0.3445945946   0.00251256281407
      0.3479729730      -0.0439189189       0.3479729730   0.00251256281407
      0.3513513514      -0.0540540541       0.3513513514   0.00251256281407
      0.3547297297      -0.0641891892       0.3547297297   0.00251256281407
      0.3581081081      -0.0743243243       0.3581081081   0.00251256281407
      0.3614864865      -0.0844594595       0.3614864865   0.00251256281407
      0.3648648649      -0.0945945946       0.3648648649   0.00251256281407
      0.3682432432      -0.1047297297       0.3682432432   0.00251256281407
      0.3716216216      -0.1148648649       0.3716216216   0.00251256281407
      0.3750000000      -0.1250000000       0.3750000000   0.00251256281407
      0.3783783784      -0.1351351351       0.3783783784   0.00251256281407
      0.3817567568      -0.1452702703       0.3817567568   0.00251256281407
      0.3851351351      -0.1554054054       0.3851351351   0.00251256281407
      0.3885135135      -0.1655405405       0.3885135135   0.00251256281407
      0.3918918919      -0.1756756757       0.3918918919   0.00251256281407
      0.3952702703      -0.1858108108       0.3952702703   0.00251256281407
      0.3986486486      -0.1959459459       0.3986486486   0.00251256281407
      0.4020270270      -0.2060810811       0.4020270270   0.00251256281407
      0.4054054054      -0.2162162162       0.4054054054   0.00251256281407
      0.4087837838      -0.2263513514       0.4087837838   0.00251256281407
      0.4121621622      -0.2364864865       0.4121621622   0.00251256281407
      0.4155405405      -0.2466216216       0.4155405405   0.00251256281407
      0.4189189189      -0.2567567568       0.4189189189   0.00251256281407
      0.4222972973      -0.2668918919       0.4222972973   0.00251256281407
      0.4256756757      -0.2770270270       0.4256756757   0.00251256281407
      0.4290540541      -0.2871621622       0.4290540541   0.00251256281407
      0.4324324324      -0.2972972973       0.4324324324   0.00251256281407
      0.4358108108      -0.3074324324       0.4358108108   0.00251256281407
      0.4391891892      -0.3175675676       0.4391891892   0.00251256281407
      0.4425675676      -0.3277027027       0.4425675676   0.00251256281407
      0.4459459459      -0.3378378378       0.4459459459   0.00251256281407
      0.4493243243      -0.3479729730       0.4493243243   0.00251256281407
      0.4527027027      -0.3581081081       0.4527027027   0.00251256281407
      0.4560810811      -0.3682432432       0.4560810811   0.00251256281407
      0.4594594595      -0.3783783784       0.4594594595   0.00251256281407
      0.4628378378      -0.3885135135       0.4628378378   0.00251256281407
      0.4662162162      -0.3986486486       0.4662162162   0.00251256281407
      0.4695945946      -0.4087837838       0.4695945946   0.00251256281407
      0.4729729730      -0.4189189189       0.4729729730   0.00251256281407
      0.4763513514      -0.4290540541       0.4763513514   0.00251256281407
      0.4797297297      -0.4391891892       0.4797297297   0.00251256281407
      0.4831081081      -0.4493243243       0.4831081081   0.00251256281407
      0.4864864865      -0.4594594595       0.4864864865   0.00251256281407
      0.4898648649      -0.4695945946       0.4898648649   0.00251256281407
      0.4932432432      -0.4797297297       0.4932432432   0.00251256281407
      0.4966216216      -0.4898648649       0.4966216216   0.00251256281407
      0.5000000000      -0.5000000000       0.5000000000   0.00251256281407
      0.2500000000       0.2500000000       0.2500000000   0.00251256281407
      0.2440476190       0.2440476190       0.2559523810   0.00251256281407
      0.2380952381       0.2380952381       0.2619047619   0.00251256281407
      0.2321428571       0.2321428571       0.2678571429   0.00251256281407
      0.2261904762       0.2261904762       0.2738095238   0.00251256281407
      0.2202380952       0.2202380952       0.2797619048   0.00251256281407
      0.2142857143       0.2142857143       0.2857142857   0.00251256281407
      0.2083333333       0.2083333333       0.2916666667   0.00251256281407
      0.2023809524       0.2023809524       0.2976190476   0.00251256281407
      0.1964285714       0.1964285714       0.3035714286   0.00251256281407
      0.1904761905       0.1904761905       0.3095238095   0.00251256281407
      0.1845238095       0.1845238095       0.3154761905   0.00251256281407
      0.1785714286       0.1785714286       0.3214285714   0.00251256281407
      0.1726190476       0.1726190476       0.3273809524   0.00251256281407
      0.1666666667       0.1666666667       0.3333333333   0.00251256281407
      0.1607142857       0.1607142857       0.3392857143   0.00251256281407
      0.1547619048       0.1547619048       0.3452380952   0.00251256281407
      0.1488095238       0.1488095238       0.3511904762   0.00251256281407