##### Generated by aiida_castep 16:43:53 22/03/2022 GMT #####
#         author: Bonan Zhu (bz240@cam.ac.uk)
# # AiiDA User: Alp Samli (asamli1998@gmail.com)
# AiiDA profile: alp
# Information of the calculation node
# label: 
# description:
# 
## Information of input nodes used:
# 
# type: uuid: ee292556-c237-4604-a89a-f3743cbd862a (pk: 20584)
# pk: 20584
# linkname: kpoints
# uuid: ee292556-c237-4604-a89a-f3743cbd862a
# label: 
# description:
# 
# 
# type: uuid: 7abf35af-cf68-4782-9cfe-273a3a2744dd (pk: 20586)
# pk: 20586
# linkname: parameters
# uuid: 7abf35af-cf68-4782-9cfe-273a3a2744dd
# label: 
# description:
# 
# 
# type: uuid: d302ba90-fd46-4d63-8ad3-9ffbb9f71087 (pk: 20585)
# pk: 20585
# linkname: settings
# uuid: d302ba90-fd46-4d63-8ad3-9ffbb9f71087
# label: 
# description:
# 
# 
# type: uuid: 48e68ce8-e2ab-4272-afcf-5011cf538748 (pk: 20535)
# pk: 20535
# linkname: structure
# uuid: 48e68ce8-e2ab-4272-afcf-5011cf538748
# label: 
# description:
# 
# 
# type: uuid: 731ebef7-8521-4b78-9cee-ba2607cd5d92 (pk: 852)
# pk: 852
# linkname: pseudo__Fe
# uuid: 731ebef7-8521-4b78-9cee-ba2607cd5d92
# label: C19
# description:
# 
# END OF HEADER
%BLOCK LATTICE_CART
      2.8600000000      -2.8600000000       0.0000000000
      0.0000000000       2.8600000000      -2.8600000000
      2.8600000000       2.8600000000       0.0000000000
%ENDBLOCK LATTICE_CART
%BLOCK POSITIONS_ABS
Fe                       0.0000000000       0.0000000000       0.0000000000 SPIN=5.000 
Fe                       1.4300000000       1.4300000000      -1.4300000000 SPIN=5.000 
Fe                       2.8600000000       0.0000000000       0.0000000000 SPIN=-5.000 
Fe                       4.2900000000       1.4300000000      -1.4300000000 SPIN=-5.000 
%ENDBLOCK POSITIONS_ABS
kpoints_mp_grid     : 11 12 11
symmetry_generate   : True
%BLOCK SPECIES_POT
Fe    C19
%ENDBLOCK SPECIES_POT
