##### Generated by aiida_castep 16:08:01 19/08/2022 BST #####
#         author: Bonan Zhu (zhubonan@outlook.com)
# # AiiDA User: Alp Samli (asamli1998@gmail.com)
# AiiDA profile: alp
# Information of the calculation node
# label: 
# description:
# 
## Information of input nodes used:
# 
# type: uuid: 575f7e3a-d2ef-4391-aec6-ec463ed46c0f (pk: 34698)
# pk: 34698
# linkname: kpoints
# uuid: 575f7e3a-d2ef-4391-aec6-ec463ed46c0f
# label: 
# description:
# 
# 
# type: uuid: 9349cdbf-f13f-452a-ac2d-939fbd966174 (pk: 34700)
# pk: 34700
# linkname: parameters
# uuid: 9349cdbf-f13f-452a-ac2d-939fbd966174
# label: 
# description:
# 
# 
# type: uuid: b544f652-c75f-4c88-b215-11bcd4df2fdb (pk: 34699)
# pk: 34699
# linkname: settings
# uuid: b544f652-c75f-4c88-b215-11bcd4df2fdb
# label: 
# description:
# 
# 
# type: uuid: beb86a8c-e655-419b-ad74-1b5b3e2318eb (pk: 34648)
# pk: 34648
# linkname: structure
# uuid: beb86a8c-e655-419b-ad74-1b5b3e2318eb
# label: 
# description:
# 
# 
# type: uuid: 731ebef7-8521-4b78-9cee-ba2607cd5d92 (pk: 852)
# pk: 852
# linkname: pseudo__Fe
# uuid: 731ebef7-8521-4b78-9cee-ba2607cd5d92
# label: C19
# description:
# 
# END OF HEADER
%BLOCK LATTICE_CART
      2.8600000000      -2.8600000000       0.0000000000
      0.0000000000       2.8600000000      -2.8600000000
      2.8600000000       2.8600000000       0.0000000000
%ENDBLOCK LATTICE_CART
%BLOCK POSITIONS_ABS
Fe                       0.0000000000       0.0000000000       0.0000000000 SPIN=5.000 
Fe                       1.4300000000       1.4300000000      -1.4300000000 SPIN=5.000 
Fe                       2.8600000000       0.0000000000       0.0000000000 SPIN=-5.000 
Fe                       4.2900000000       1.4300000000      -1.4300000000 SPIN=-5.000 
%ENDBLOCK POSITIONS_ABS
kpoints_mp_grid     : 8 9 8
symmetry_generate   : True
%BLOCK SPECIES_POT
Fe    C19
%ENDBLOCK SPECIES_POT