##### Generated by aiida_castep 09:59:23 02/11/2023 GMT #####
#         author: Bonan Zhu (zhubonan@outlook.com)
# # AiiDA User: Alp Samli (asamli1998@gmail.com)
# AiiDA profile: alp
# Information of the calculation node
# label: 
# description:
# 
## Information of input nodes used:
# 
# type: uuid: 99ec9ff6-4ffe-42df-87cf-84f9abfa6b55 (pk: 157050)
# pk: 157050
# linkname: kpoints
# uuid: 99ec9ff6-4ffe-42df-87cf-84f9abfa6b55
# label: 
# description:
# 
# 
# type: uuid: d6cd4cb8-6603-4967-b21e-b46abe16a128 (pk: 157052)
# pk: 157052
# linkname: parameters
# uuid: d6cd4cb8-6603-4967-b21e-b46abe16a128
# label: 
# description:
# 
# 
# type: uuid: 1060a18b-27fc-419a-9839-b814d83477d1 (pk: 157051)
# pk: 157051
# linkname: settings
# uuid: 1060a18b-27fc-419a-9839-b814d83477d1
# label: 
# description:
# 
# 
# type: uuid: 90fed43c-9af5-4f2d-bc65-96c50b9a7d74 (pk: 156880)
# pk: 156880
# linkname: structure
# uuid: 90fed43c-9af5-4f2d-bc65-96c50b9a7d74
# label: 
# description:
# 
# 
# type: uuid: 731ebef7-8521-4b78-9cee-ba2607cd5d92 (pk: 852)
# pk: 852
# linkname: pseudo__O
# uuid: 731ebef7-8521-4b78-9cee-ba2607cd5d92
# label: C19
# description:
# 
# 
# type: uuid: 731ebef7-8521-4b78-9cee-ba2607cd5d92 (pk: 852)
# pk: 852
# linkname: pseudo__Ti
# uuid: 731ebef7-8521-4b78-9cee-ba2607cd5d92
# label: C19
# description:
# 
# END OF HEADER
%BLOCK LATTICE_CART
      1.8834680000       6.1535770000       0.0000000000
     -1.8834680000       6.1535770000       0.0000000000
      0.0000000000       1.9283260000       6.3289670000
%ENDBLOCK LATTICE_CART
%BLOCK POSITIONS_ABS
Ti                       0.0000000000       3.7845552336       4.5330466661
Ti                       0.0000000000      12.4471913417       4.4960854989
Ti                       0.0000000000      10.4509247664       1.7959203339
Ti                       0.0000000000       1.7882886583       1.8328815011
O                        0.0000000000      12.3024470749       2.3415848817
O                        0.0000000000       5.8169137981       4.4720670691
O                        0.0000000000      10.6817090572       0.0298031056
O                        0.0000000000       1.9330329251       3.9873821183
O                        0.0000000000       3.9128929853       2.1993160325
O                        0.0000000000       3.5537709428       6.2991638944
O                        0.0000000000      10.3225870147       4.1296509675
O                        0.0000000000       8.4185662019       1.8568999309
%ENDBLOCK POSITIONS_ABS
kpoints_mp_grid     : 4 4 3
symmetry_generate   : True
%BLOCK SPECIES_POT
Ti    C19
O     C19
%ENDBLOCK SPECIES_POT