##### Generated by aiida_castep 16:34:53 14/03/2022 GMT #####
#         author: Bonan Zhu (bz240@cam.ac.uk)
# # AiiDA User: Alp Samli (asamli1998@gmail.com)
# AiiDA profile: alp
# Information of the calculation node
# label: 
# description:
# 
## Information of input nodes used:
# 
# type: uuid: 1e619392-b500-4d4e-80a4-7f672a596726 (pk: 17955)
# pk: 17955
# linkname: kpoints
# uuid: 1e619392-b500-4d4e-80a4-7f672a596726
# label: 
# description:
# 
# 
# type: uuid: 79f95fea-5707-4266-b5b1-ab675c689a5f (pk: 17957)
# pk: 17957
# linkname: parameters
# uuid: 79f95fea-5707-4266-b5b1-ab675c689a5f
# label: 
# description:
# 
# 
# type: uuid: 183a623c-7082-48e0-ad81-5f48eff80382 (pk: 17956)
# pk: 17956
# linkname: settings
# uuid: 183a623c-7082-48e0-ad81-5f48eff80382
# label: 
# description:
# 
# 
# type: uuid: 94464b3b-ba45-4e8c-95db-354227f1bc41 (pk: 17764)
# pk: 17764
# linkname: structure
# uuid: 94464b3b-ba45-4e8c-95db-354227f1bc41
# label: 
# description:
# 
# 
# type: uuid: 731ebef7-8521-4b78-9cee-ba2607cd5d92 (pk: 852)
# pk: 852
# linkname: pseudo__Si
# uuid: 731ebef7-8521-4b78-9cee-ba2607cd5d92
# label: C19
# description:
# 
# END OF HEADER
%BLOCK LATTICE_CART
      0.0000000000       2.7150000000       2.7150000000
      2.7150000000       0.0000000000       2.7150000000
      2.7150000000       2.7150000000       0.0000000000
%ENDBLOCK LATTICE_CART
%BLOCK POSITIONS_ABS
Si                       0.0000000000       0.0000000000       0.0000000000
Si                       1.3575000000       1.3575000000       1.3575000000
%ENDBLOCK POSITIONS_ABS
kpoints_mp_grid     : 8 8 8
symmetry_generate   : True
%BLOCK SPECIES_POT
Si    C19
%ENDBLOCK SPECIES_POT
