##### Generated by aiida_castep 15:44:09 20/01/2022 GMT #####
#         author: Bonan Zhu (bz240@cam.ac.uk)
# # AiiDA User: Alp Samli (asamli1998@gmail.com)
# AiiDA profile: alp
# Information of the calculation node
# label: 
# description:
# 
## Information of input nodes used:
# 
# type: uuid: b7d9748f-e42e-44ba-a1a8-70a25452b6ff (pk: 6266)
# pk: 6266
# linkname: structure
# uuid: b7d9748f-e42e-44ba-a1a8-70a25452b6ff
# label: 
# description:
# 
# 
# type: uuid: 7aa3dee3-694e-422c-8c27-b564085de7e8 (pk: 6417)
# pk: 6417
# linkname: settings
# uuid: 7aa3dee3-694e-422c-8c27-b564085de7e8
# label: 
# description:
# 
# 
# type: uuid: 1196f4ad-acfc-466a-b242-e7c63da63a82 (pk: 6418)
# pk: 6418
# linkname: parameters
# uuid: 1196f4ad-acfc-466a-b242-e7c63da63a82
# label: 
# description:
# 
# 
# type: uuid: 1a081bea-d006-4a9b-9752-5329708d305e (pk: 6416)
# pk: 6416
# linkname: kpoints
# uuid: 1a081bea-d006-4a9b-9752-5329708d305e
# label: 
# description:
# 
# 
# type: uuid: 731ebef7-8521-4b78-9cee-ba2607cd5d92 (pk: 852)
# pk: 852
# linkname: pseudo__Si
# uuid: 731ebef7-8521-4b78-9cee-ba2607cd5d92
# label: C19
# description:
# 
# END OF HEADER
%BLOCK LATTICE_CART
      0.0000000000       2.7150000000       2.7150000000
      2.7150000000       0.0000000000       2.7150000000
      2.7150000000       2.7150000000       0.0000000000
%ENDBLOCK LATTICE_CART
%BLOCK POSITIONS_ABS
Si                       0.0000000000       0.0000000000       0.0000000000
Si                       1.3575000000       1.3575000000       1.3575000000
%ENDBLOCK POSITIONS_ABS
kpoints_mp_grid     : 11 11 11
symmetry_generate   : True
%BLOCK SPECIES_POT
Si    C19
%ENDBLOCK SPECIES_POT
