##### Generated by aiida_castep 13:54:43 25/01/2022 GMT #####
#         author: Bonan Zhu (bz240@cam.ac.uk)
# # AiiDA User: Alp Samli (asamli1998@gmail.com)
# AiiDA profile: alp
# Information of the calculation node
# label: Si_pbesol_dos+bands
# description:
# 
## Information of input nodes used:
# 
# type: uuid: 640bbc1a-a76b-42a1-9907-ee7e921d72b5 (pk: 6690)
# pk: 6690
# linkname: structure
# uuid: 640bbc1a-a76b-42a1-9907-ee7e921d72b5
# label: 
# description:
# 
# 
# type: uuid: a15be03c-7477-4ce7-aeec-4e1094388256 (pk: 6701)
# pk: 6701
# linkname: settings
# uuid: a15be03c-7477-4ce7-aeec-4e1094388256
# label: 
# description:
# 
# 
# type: uuid: bdc30af3-e83f-4055-bdb9-de928446dfc0 (pk: 6702)
# pk: 6702
# linkname: parameters
# uuid: bdc30af3-e83f-4055-bdb9-de928446dfc0
# label: 
# description:
# 
# 
# type: uuid: 9e156160-e4e4-405d-b1f0-ecd52783f2f3 (pk: 6700)
# pk: 6700
# linkname: kpoints
# uuid: 9e156160-e4e4-405d-b1f0-ecd52783f2f3
# label: 
# description:
# 
# 
# type: uuid: 731ebef7-8521-4b78-9cee-ba2607cd5d92 (pk: 852)
# pk: 852
# linkname: pseudo__Si
# uuid: 731ebef7-8521-4b78-9cee-ba2607cd5d92
# label: C19
# description:
# 
# END OF HEADER
%BLOCK LATTICE_CART
      0.0000000000       2.7150000000       2.7150000000
      2.7150000000       0.0000000000       2.7150000000
      2.7150000000       2.7150000000       0.0000000000
%ENDBLOCK LATTICE_CART
%BLOCK POSITIONS_ABS
Si                       0.0000000000       0.0000000000       0.0000000000
Si                       1.3575000000       1.3575000000       1.3575000000
%ENDBLOCK POSITIONS_ABS
kpoints_mp_grid     : 4 4 4
symmetry_generate   : True
spectral_kpoint_mp_spacing: 0.03
%BLOCK SPECIES_POT
Si    C19
%ENDBLOCK SPECIES_POT
