##### Generated by aiida_castep 10:29:14 25/02/2022 GMT #####
#         author: Bonan Zhu (bz240@cam.ac.uk)
# # AiiDA User: Alp Samli (asamli1998@gmail.com)
# AiiDA profile: alp
# Information of the calculation node
# label: Si_pbesol_dos+bands
# description:
# 
## Information of input nodes used:
# 
# type: uuid: f4b9c1e1-22d4-4d45-ae2c-7f83214380f0 (pk: 14481)
# pk: 14481
# linkname: kpoints
# uuid: f4b9c1e1-22d4-4d45-ae2c-7f83214380f0
# label: 
# description:
# 
# 
# type: uuid: 94b8c5df-90cb-4677-9d5b-aa4da6be8953 (pk: 14483)
# pk: 14483
# linkname: parameters
# uuid: 94b8c5df-90cb-4677-9d5b-aa4da6be8953
# label: 
# description:
# 
# 
# type: uuid: e4bb8597-1dae-4f81-a86f-8b1fd55f05fb (pk: 14482)
# pk: 14482
# linkname: settings
# uuid: e4bb8597-1dae-4f81-a86f-8b1fd55f05fb
# label: 
# description:
# 
# 
# type: uuid: 7175c018-3ea9-463d-b2ae-59f067a9ec30 (pk: 14471)
# pk: 14471
# linkname: structure
# uuid: 7175c018-3ea9-463d-b2ae-59f067a9ec30
# label: 
# description:
# 
# 
# type: uuid: 731ebef7-8521-4b78-9cee-ba2607cd5d92 (pk: 852)
# pk: 852
# linkname: pseudo__Si
# uuid: 731ebef7-8521-4b78-9cee-ba2607cd5d92
# label: C19
# description:
# 
# END OF HEADER
%BLOCK LATTICE_CART
      0.0000000000       2.7150000000       2.7150000000
      2.7150000000       0.0000000000       2.7150000000
      2.7150000000       2.7150000000       0.0000000000
%ENDBLOCK LATTICE_CART
%BLOCK POSITIONS_ABS
Si                       0.0000000000       0.0000000000       0.0000000000
Si                       1.3575000000       1.3575000000       1.3575000000
%ENDBLOCK POSITIONS_ABS
kpoints_mp_grid     : 8 8 8
symmetry_generate   : True
spectral_kpoint_mp_spacing: 0.013333333333333
%BLOCK SPECIES_POT
Si    C19
%ENDBLOCK SPECIES_POT
