##### Generated by aiida_castep 16:43:54 22/03/2022 GMT #####
#         author: Bonan Zhu (bz240@cam.ac.uk)
# # AiiDA User: Alp Samli (asamli1998@gmail.com)
# AiiDA profile: alp
# Information of the calculation node
# label: 
# description:
# 
## Information of input nodes used:
# 
# type: uuid: 86f31794-6b1f-4d75-b84a-a08782668888 (pk: 20604)
# pk: 20604
# linkname: kpoints
# uuid: 86f31794-6b1f-4d75-b84a-a08782668888
# label: 
# description:
# 
# 
# type: uuid: b85d98ba-ca4d-49f7-b908-43f768829be2 (pk: 20606)
# pk: 20606
# linkname: parameters
# uuid: b85d98ba-ca4d-49f7-b908-43f768829be2
# label: 
# description:
# 
# 
# type: uuid: fbd4a52e-fa7c-42f0-9533-8ccfa6bf235a (pk: 20605)
# pk: 20605
# linkname: settings
# uuid: fbd4a52e-fa7c-42f0-9533-8ccfa6bf235a
# label: 
# description:
# 
# 
# type: uuid: 82b1e508-5c9e-4db8-a314-0a3a53b006ff (pk: 20545)
# pk: 20545
# linkname: structure
# uuid: 82b1e508-5c9e-4db8-a314-0a3a53b006ff
# label: 
# description:
# 
# 
# type: uuid: 731ebef7-8521-4b78-9cee-ba2607cd5d92 (pk: 852)
# pk: 852
# linkname: pseudo__Fe
# uuid: 731ebef7-8521-4b78-9cee-ba2607cd5d92
# label: C19
# description:
# 
# END OF HEADER
%BLOCK LATTICE_CART
     -1.4300000000       1.4300000000       1.4300000000
      1.4300000000      -1.4300000000       1.4300000000
      2.8600000000       2.8600000000       0.0000000000
%ENDBLOCK LATTICE_CART
%BLOCK POSITIONS_ABS
Fe                       0.0000000000       0.0000000000       0.0000000000 SPIN=5.000 
Fe                       1.4300000000       1.4300000000       1.4300000000 SPIN=-5.000 
%ENDBLOCK POSITIONS_ABS
kpoints_mp_grid     : 15 15 9
symmetry_generate   : True
%BLOCK SPECIES_POT
Fe    C19
%ENDBLOCK SPECIES_POT
