##### Generated by aiida_castep 16:08:02 19/08/2022 BST #####
#         author: Bonan Zhu (zhubonan@outlook.com)
# # AiiDA User: Alp Samli (asamli1998@gmail.com)
# AiiDA profile: alp
# Information of the calculation node
# label: 
# description:
# 
## Information of input nodes used:
# 
# type: uuid: e344b12d-e25f-46ee-811e-a93e84cb25b3 (pk: 34718)
# pk: 34718
# linkname: kpoints
# uuid: e344b12d-e25f-46ee-811e-a93e84cb25b3
# label: 
# description:
# 
# 
# type: uuid: 85e7c6e8-5a39-4ea6-b6ed-67967ccef1bd (pk: 34720)
# pk: 34720
# linkname: parameters
# uuid: 85e7c6e8-5a39-4ea6-b6ed-67967ccef1bd
# label: 
# description:
# 
# 
# type: uuid: a1b646b3-2772-4541-b878-5a72a41bd57f (pk: 34719)
# pk: 34719
# linkname: settings
# uuid: a1b646b3-2772-4541-b878-5a72a41bd57f
# label: 
# description:
# 
# 
# type: uuid: 2e01657a-e2b6-4c44-b9ee-b2d2e0d221b6 (pk: 34658)
# pk: 34658
# linkname: structure
# uuid: 2e01657a-e2b6-4c44-b9ee-b2d2e0d221b6
# label: 
# description:
# 
# 
# type: uuid: 731ebef7-8521-4b78-9cee-ba2607cd5d92 (pk: 852)
# pk: 852
# linkname: pseudo__Fe
# uuid: 731ebef7-8521-4b78-9cee-ba2607cd5d92
# label: C19
# description:
# 
# END OF HEADER
%BLOCK LATTICE_CART
     -1.4300000000       1.4300000000       1.4300000000
      1.4300000000      -1.4300000000       1.4300000000
      2.8600000000       2.8600000000       0.0000000000
%ENDBLOCK LATTICE_CART
%BLOCK POSITIONS_ABS
Fe                       0.0000000000       0.0000000000       0.0000000000 SPIN=5.000 
Fe                       1.4300000000       1.4300000000       1.4300000000 SPIN=-5.000 
%ENDBLOCK POSITIONS_ABS
kpoints_mp_grid     : 11 11 7
symmetry_generate   : True
%BLOCK SPECIES_POT
Fe    C19
%ENDBLOCK SPECIES_POT