##### Generated by aiida_castep 10:58:51 03/02/2022 GMT #####
#         author: Bonan Zhu (bz240@cam.ac.uk)
# # AiiDA User: Alp Samli (asamli1998@gmail.com)
# AiiDA profile: alp
# Information of the calculation node
# label: 
# description:
# 
## Information of input nodes used:
# 
# type: uuid: 1b0994f5-de2b-4e33-a6db-8052aeff983d (pk: 9818)
# pk: 9818
# linkname: kpoints
# uuid: 1b0994f5-de2b-4e33-a6db-8052aeff983d
# label: 
# description:
# 
# 
# type: uuid: 6a30b1ee-43c1-4345-8ad9-651dde3db59a (pk: 9820)
# pk: 9820
# linkname: parameters
# uuid: 6a30b1ee-43c1-4345-8ad9-651dde3db59a
# label: 
# description:
# 
# 
# type: uuid: f37bbee6-57f4-4a43-801d-936fe5ca6fae (pk: 9819)
# pk: 9819
# linkname: settings
# uuid: f37bbee6-57f4-4a43-801d-936fe5ca6fae
# label: 
# description:
# 
# 
# type: uuid: e997cdba-ee76-4e0e-81ea-a833b8c4ef2f (pk: 9760)
# pk: 9760
# linkname: structure
# uuid: e997cdba-ee76-4e0e-81ea-a833b8c4ef2f
# label: 
# description:
# 
# 
# type: uuid: 731ebef7-8521-4b78-9cee-ba2607cd5d92 (pk: 852)
# pk: 852
# linkname: pseudo__Si
# uuid: 731ebef7-8521-4b78-9cee-ba2607cd5d92
# label: C19
# description:
# 
# END OF HEADER
%BLOCK LATTICE_CART
      0.0000000000       2.7150000000       2.7150000000
      2.7150000000       0.0000000000       2.7150000000
      2.7150000000       2.7150000000       0.0000000000
%ENDBLOCK LATTICE_CART
%BLOCK POSITIONS_ABS
Si                       0.0000000000       0.0000000000       0.0000000000
Si                       1.3575000000       1.3575000000       1.3575000000
%ENDBLOCK POSITIONS_ABS
kpoints_mp_grid     : 4 4 4
symmetry_generate   : True
%BLOCK SPECIES_POT
Si    C19
%ENDBLOCK SPECIES_POT
