##### Generated by aiida_castep 16:33:56 14/03/2022 GMT #####
#         author: Bonan Zhu (bz240@cam.ac.uk)
# # AiiDA User: Alp Samli (asamli1998@gmail.com)
# AiiDA profile: alp
# Information of the calculation node
# label: 
# description:
# 
## Information of input nodes used:
# 
# type: uuid: 3f177ea7-71a4-43e7-a605-3bbd27d09141 (pk: 17822)
# pk: 17822
# linkname: kpoints
# uuid: 3f177ea7-71a4-43e7-a605-3bbd27d09141
# label: 
# description:
# 
# 
# type: uuid: 4fc50098-c86c-4c9a-a776-28b45904fdfd (pk: 17824)
# pk: 17824
# linkname: parameters
# uuid: 4fc50098-c86c-4c9a-a776-28b45904fdfd
# label: 
# description:
# 
# 
# type: uuid: 0f9819e2-37f6-45c9-b9fc-be137bb5bd95 (pk: 17823)
# pk: 17823
# linkname: settings
# uuid: 0f9819e2-37f6-45c9-b9fc-be137bb5bd95
# label: 
# description:
# 
# 
# type: uuid: 94464b3b-ba45-4e8c-95db-354227f1bc41 (pk: 17764)
# pk: 17764
# linkname: structure
# uuid: 94464b3b-ba45-4e8c-95db-354227f1bc41
# label: 
# description:
# 
# 
# type: uuid: 731ebef7-8521-4b78-9cee-ba2607cd5d92 (pk: 852)
# pk: 852
# linkname: pseudo__Si
# uuid: 731ebef7-8521-4b78-9cee-ba2607cd5d92
# label: C19
# description:
# 
# END OF HEADER
%BLOCK LATTICE_CART
      0.0000000000       2.7150000000       2.7150000000
      2.7150000000       0.0000000000       2.7150000000
      2.7150000000       2.7150000000       0.0000000000
%ENDBLOCK LATTICE_CART
%BLOCK POSITIONS_ABS
Si                       0.0000000000       0.0000000000       0.0000000000
Si                       1.3575000000       1.3575000000       1.3575000000
%ENDBLOCK POSITIONS_ABS
kpoints_mp_grid     : 4 4 4
symmetry_generate   : True
%BLOCK SPECIES_POT
Si    C19
%ENDBLOCK SPECIES_POT
