##### Generated by aiida_castep 15:43:41 20/01/2022 GMT #####
#         author: Bonan Zhu (bz240@cam.ac.uk)
# # AiiDA User: Alp Samli (asamli1998@gmail.com)
# AiiDA profile: alp
# Information of the calculation node
# label: 
# description:
# 
## Information of input nodes used:
# 
# type: uuid: b7d9748f-e42e-44ba-a1a8-70a25452b6ff (pk: 6266)
# pk: 6266
# linkname: structure
# uuid: b7d9748f-e42e-44ba-a1a8-70a25452b6ff
# label: 
# description:
# 
# 
# type: uuid: 7826e28a-05f0-4be4-92ce-0224998e561b (pk: 6317)
# pk: 6317
# linkname: settings
# uuid: 7826e28a-05f0-4be4-92ce-0224998e561b
# label: 
# description:
# 
# 
# type: uuid: 763fe95c-108e-460e-9766-938e156b389b (pk: 6318)
# pk: 6318
# linkname: parameters
# uuid: 763fe95c-108e-460e-9766-938e156b389b
# label: 
# description:
# 
# 
# type: uuid: d6bcec9c-36a0-4a5f-99b1-30cace8d2b2a (pk: 6316)
# pk: 6316
# linkname: kpoints
# uuid: d6bcec9c-36a0-4a5f-99b1-30cace8d2b2a
# label: 
# description:
# 
# 
# type: uuid: 731ebef7-8521-4b78-9cee-ba2607cd5d92 (pk: 852)
# pk: 852
# linkname: pseudo__Si
# uuid: 731ebef7-8521-4b78-9cee-ba2607cd5d92
# label: C19
# description:
# 
# END OF HEADER
%BLOCK LATTICE_CART
      0.0000000000       2.7150000000       2.7150000000
      2.7150000000       0.0000000000       2.7150000000
      2.7150000000       2.7150000000       0.0000000000
%ENDBLOCK LATTICE_CART
%BLOCK POSITIONS_ABS
Si                       0.0000000000       0.0000000000       0.0000000000
Si                       1.3575000000       1.3575000000       1.3575000000
%ENDBLOCK POSITIONS_ABS
kpoints_mp_grid     : 4 4 4
symmetry_generate   : True
%BLOCK SPECIES_POT
Si    C19
%ENDBLOCK SPECIES_POT
