##### Generated by aiida_castep 16:10:41 28/02/2022 GMT #####
#         author: Bonan Zhu (bz240@cam.ac.uk)
# # AiiDA User: Alp Samli (asamli1998@gmail.com)
# AiiDA profile: alp
# Information of the calculation node
# label: 
# description:
# 
## Information of input nodes used:
# 
# type: uuid: 06cad3e4-931d-46c2-8948-58145609ac2a (pk: 15838)
# pk: 15838
# linkname: kpoints
# uuid: 06cad3e4-931d-46c2-8948-58145609ac2a
# label: 
# description:
# 
# 
# type: uuid: b0a68b12-6647-4820-9436-2c3544e1369a (pk: 15840)
# pk: 15840
# linkname: parameters
# uuid: b0a68b12-6647-4820-9436-2c3544e1369a
# label: 
# description:
# 
# 
# type: uuid: 2b5a2c38-8940-4484-9e16-86b04b1bfd75 (pk: 15839)
# pk: 15839
# linkname: settings
# uuid: 2b5a2c38-8940-4484-9e16-86b04b1bfd75
# label: 
# description:
# 
# 
# type: uuid: f4efd56d-5b48-42ad-a55f-3b988e0b5e26 (pk: 15780)
# pk: 15780
# linkname: structure
# uuid: f4efd56d-5b48-42ad-a55f-3b988e0b5e26
# label: 
# description:
# 
# 
# type: uuid: 731ebef7-8521-4b78-9cee-ba2607cd5d92 (pk: 852)
# pk: 852
# linkname: pseudo__Si
# uuid: 731ebef7-8521-4b78-9cee-ba2607cd5d92
# label: C19
# description:
# 
# END OF HEADER
%BLOCK LATTICE_CART
      0.0000000000       2.7150000000       2.7150000000
      2.7150000000       0.0000000000       2.7150000000
      2.7150000000       2.7150000000       0.0000000000
%ENDBLOCK LATTICE_CART
%BLOCK POSITIONS_ABS
Si                       0.0000000000       0.0000000000       0.0000000000
Si                       1.3575000000       1.3575000000       1.3575000000
%ENDBLOCK POSITIONS_ABS
kpoints_mp_grid     : 4 4 4
symmetry_generate   : True
%BLOCK SPECIES_POT
Si    C19
%ENDBLOCK SPECIES_POT
