##### Generated by aiida_castep 16:34:25 14/03/2022 GMT #####
#         author: Bonan Zhu (bz240@cam.ac.uk)
# # AiiDA User: Alp Samli (asamli1998@gmail.com)
# AiiDA profile: alp
# Information of the calculation node
# label: 
# description:
# 
## Information of input nodes used:
# 
# type: uuid: 5ebbbff0-d123-4360-b544-26c66d1cfdbf (pk: 17896)
# pk: 17896
# linkname: kpoints
# uuid: 5ebbbff0-d123-4360-b544-26c66d1cfdbf
# label: 
# description:
# 
# 
# type: uuid: eb157ff6-878a-4c6c-9e90-3f5849b48cf7 (pk: 17898)
# pk: 17898
# linkname: parameters
# uuid: eb157ff6-878a-4c6c-9e90-3f5849b48cf7
# label: 
# description:
# 
# 
# type: uuid: e5377752-dd30-47a0-b32c-fa0cd43d2a36 (pk: 17897)
# pk: 17897
# linkname: settings
# uuid: e5377752-dd30-47a0-b32c-fa0cd43d2a36
# label: 
# description:
# 
# 
# type: uuid: 94464b3b-ba45-4e8c-95db-354227f1bc41 (pk: 17764)
# pk: 17764
# linkname: structure
# uuid: 94464b3b-ba45-4e8c-95db-354227f1bc41
# label: 
# description:
# 
# 
# type: uuid: 731ebef7-8521-4b78-9cee-ba2607cd5d92 (pk: 852)
# pk: 852
# linkname: pseudo__Si
# uuid: 731ebef7-8521-4b78-9cee-ba2607cd5d92
# label: C19
# description:
# 
# END OF HEADER
%BLOCK LATTICE_CART
      0.0000000000       2.7150000000       2.7150000000
      2.7150000000       0.0000000000       2.7150000000
      2.7150000000       2.7150000000       0.0000000000
%ENDBLOCK LATTICE_CART
%BLOCK POSITIONS_ABS
Si                       0.0000000000       0.0000000000       0.0000000000
Si                       1.3575000000       1.3575000000       1.3575000000
%ENDBLOCK POSITIONS_ABS
kpoints_mp_grid     : 4 4 4
symmetry_generate   : True
%BLOCK SPECIES_POT
Si    C19
%ENDBLOCK SPECIES_POT
