##### Generated by aiida_castep 16:11:11 28/02/2022 GMT #####
#         author: Bonan Zhu (bz240@cam.ac.uk)
# # AiiDA User: Alp Samli (asamli1998@gmail.com)
# AiiDA profile: alp
# Information of the calculation node
# label: 
# description:
# 
## Information of input nodes used:
# 
# type: uuid: 6fdcb28b-3d06-492e-8514-0617a73c078f (pk: 15912)
# pk: 15912
# linkname: kpoints
# uuid: 6fdcb28b-3d06-492e-8514-0617a73c078f
# label: 
# description:
# 
# 
# type: uuid: 8b34167c-7649-4d4c-81a3-2059e551865c (pk: 15914)
# pk: 15914
# linkname: parameters
# uuid: 8b34167c-7649-4d4c-81a3-2059e551865c
# label: 
# description:
# 
# 
# type: uuid: 1729a476-c770-4e94-8e88-d0e66df2e29d (pk: 15913)
# pk: 15913
# linkname: settings
# uuid: 1729a476-c770-4e94-8e88-d0e66df2e29d
# label: 
# description:
# 
# 
# type: uuid: f4efd56d-5b48-42ad-a55f-3b988e0b5e26 (pk: 15780)
# pk: 15780
# linkname: structure
# uuid: f4efd56d-5b48-42ad-a55f-3b988e0b5e26
# label: 
# description:
# 
# 
# type: uuid: 731ebef7-8521-4b78-9cee-ba2607cd5d92 (pk: 852)
# pk: 852
# linkname: pseudo__Si
# uuid: 731ebef7-8521-4b78-9cee-ba2607cd5d92
# label: C19
# description:
# 
# END OF HEADER
%BLOCK LATTICE_CART
      0.0000000000       2.7150000000       2.7150000000
      2.7150000000       0.0000000000       2.7150000000
      2.7150000000       2.7150000000       0.0000000000
%ENDBLOCK LATTICE_CART
%BLOCK POSITIONS_ABS
Si                       0.0000000000       0.0000000000       0.0000000000
Si                       1.3575000000       1.3575000000       1.3575000000
%ENDBLOCK POSITIONS_ABS
kpoints_mp_grid     : 4 4 4
symmetry_generate   : True
%BLOCK SPECIES_POT
Si    C19
%ENDBLOCK SPECIES_POT
