##### Generated by aiida_castep 15:44:09 20/01/2022 GMT #####
#         author: Bonan Zhu (bz240@cam.ac.uk)
# # AiiDA User: Alp Samli (asamli1998@gmail.com)
# AiiDA profile: alp
# Information of the calculation node
# label: 
# description:
# 
## Information of input nodes used:
# 
# type: uuid: b7d9748f-e42e-44ba-a1a8-70a25452b6ff (pk: 6266)
# pk: 6266
# linkname: structure
# uuid: b7d9748f-e42e-44ba-a1a8-70a25452b6ff
# label: 
# description:
# 
# 
# type: uuid: 2fed9907-aaf0-4e99-bcab-d7cbd8f3778d (pk: 6397)
# pk: 6397
# linkname: settings
# uuid: 2fed9907-aaf0-4e99-bcab-d7cbd8f3778d
# label: 
# description:
# 
# 
# type: uuid: 91b5e977-2555-4250-ad63-2c3abc4fdd95 (pk: 6398)
# pk: 6398
# linkname: parameters
# uuid: 91b5e977-2555-4250-ad63-2c3abc4fdd95
# label: 
# description:
# 
# 
# type: uuid: 3660e1f9-19c1-4173-82c8-03f879c05913 (pk: 6396)
# pk: 6396
# linkname: kpoints
# uuid: 3660e1f9-19c1-4173-82c8-03f879c05913
# label: 
# description:
# 
# 
# type: uuid: 731ebef7-8521-4b78-9cee-ba2607cd5d92 (pk: 852)
# pk: 852
# linkname: pseudo__Si
# uuid: 731ebef7-8521-4b78-9cee-ba2607cd5d92
# label: C19
# description:
# 
# END OF HEADER
%BLOCK LATTICE_CART
      0.0000000000       2.7150000000       2.7150000000
      2.7150000000       0.0000000000       2.7150000000
      2.7150000000       2.7150000000       0.0000000000
%ENDBLOCK LATTICE_CART
%BLOCK POSITIONS_ABS
Si                       0.0000000000       0.0000000000       0.0000000000
Si                       1.3575000000       1.3575000000       1.3575000000
%ENDBLOCK POSITIONS_ABS
kpoints_mp_grid     : 4 4 4
symmetry_generate   : True
%BLOCK SPECIES_POT
Si    C19
%ENDBLOCK SPECIES_POT
