##### Generated by aiida_castep 10:59:20 03/02/2022 GMT #####
#         author: Bonan Zhu (bz240@cam.ac.uk)
# # AiiDA User: Alp Samli (asamli1998@gmail.com)
# AiiDA profile: alp
# Information of the calculation node
# label: 
# description:
# 
## Information of input nodes used:
# 
# type: uuid: 958a480a-5c28-4eaf-afd2-d74d02db5406 (pk: 9889)
# pk: 9889
# linkname: kpoints
# uuid: 958a480a-5c28-4eaf-afd2-d74d02db5406
# label: 
# description:
# 
# 
# type: uuid: a3512539-cc91-475b-a947-9233e8607dc1 (pk: 9891)
# pk: 9891
# linkname: parameters
# uuid: a3512539-cc91-475b-a947-9233e8607dc1
# label: 
# description:
# 
# 
# type: uuid: ec2675de-5d7b-4693-988b-ceffe4492ca9 (pk: 9890)
# pk: 9890
# linkname: settings
# uuid: ec2675de-5d7b-4693-988b-ceffe4492ca9
# label: 
# description:
# 
# 
# type: uuid: e997cdba-ee76-4e0e-81ea-a833b8c4ef2f (pk: 9760)
# pk: 9760
# linkname: structure
# uuid: e997cdba-ee76-4e0e-81ea-a833b8c4ef2f
# label: 
# description:
# 
# 
# type: uuid: 731ebef7-8521-4b78-9cee-ba2607cd5d92 (pk: 852)
# pk: 852
# linkname: pseudo__Si
# uuid: 731ebef7-8521-4b78-9cee-ba2607cd5d92
# label: C19
# description:
# 
# END OF HEADER
%BLOCK LATTICE_CART
      0.0000000000       2.7150000000       2.7150000000
      2.7150000000       0.0000000000       2.7150000000
      2.7150000000       2.7150000000       0.0000000000
%ENDBLOCK LATTICE_CART
%BLOCK POSITIONS_ABS
Si                       0.0000000000       0.0000000000       0.0000000000
Si                       1.3575000000       1.3575000000       1.3575000000
%ENDBLOCK POSITIONS_ABS
kpoints_mp_grid     : 4 4 4
symmetry_generate   : True
%BLOCK SPECIES_POT
Si    C19
%ENDBLOCK SPECIES_POT
