##### Generated by aiida_castep 15:27:42 02/11/2023 GMT #####
#         author: Bonan Zhu (zhubonan@outlook.com)
# # AiiDA User: Alp Samli (asamli1998@gmail.com)
# AiiDA profile: alp
# Information of the calculation node
# label: 
# description:
# 
## Information of input nodes used:
# 
# type: uuid: dcbe12b5-af5a-475b-a289-41804c49d612 (pk: 157328)
# pk: 157328
# linkname: kpoints
# uuid: dcbe12b5-af5a-475b-a289-41804c49d612
# label: 
# description:
# 
# 
# type: uuid: a8bd5111-85b9-4fd7-a115-e7c9d1987236 (pk: 157355)
# pk: 157355
# linkname: parameters
# uuid: a8bd5111-85b9-4fd7-a115-e7c9d1987236
# label: 
# description:
# 
# 
# type: uuid: 8b5c9981-d47d-4da0-887f-637ef0bd953c (pk: 157354)
# pk: 157354
# linkname: settings
# uuid: 8b5c9981-d47d-4da0-887f-637ef0bd953c
# label: 
# description:
# 
# 
# type: uuid: c8f84600-8dda-4992-8ed9-2b63a7d0211d (pk: 156878)
# pk: 156878
# linkname: structure
# uuid: c8f84600-8dda-4992-8ed9-2b63a7d0211d
# label: 
# description:
# 
# 
# type: uuid: 731ebef7-8521-4b78-9cee-ba2607cd5d92 (pk: 852)
# pk: 852
# linkname: pseudo__Ti
# uuid: 731ebef7-8521-4b78-9cee-ba2607cd5d92
# label: C19
# description:
# 
# END OF HEADER
%BLOCK LATTICE_CART
      2.2884270000      -3.9636730000       0.0000000000
      2.2884270000       3.9636730000       0.0000000000
      0.0000000000       0.0000000000       2.8286830000
%ENDBLOCK LATTICE_CART
%BLOCK POSITIONS_ABS
Ti                       0.0000000000       0.0000000000       0.0000000000
Ti                       2.2884270000       1.3212269758       1.4143415000
Ti                       2.2884270000      -1.3212269758       1.4143415000
%ENDBLOCK POSITIONS_ABS
kpoints_mp_grid     : 1 1 1
symmetry_generate   : True
%BLOCK SPECIES_POT
Ti    C19
%ENDBLOCK SPECIES_POT