##### Generated by aiida_castep 16:08:01 19/08/2022 BST #####
#         author: Bonan Zhu (zhubonan@outlook.com)
# # AiiDA User: Alp Samli (asamli1998@gmail.com)
# AiiDA profile: alp
# Information of the calculation node
# label: 
# description:
# 
## Information of input nodes used:
# 
# type: uuid: 29714912-0d1e-4573-8fb3-76951ed00a6c (pk: 34694)
# pk: 34694
# linkname: kpoints
# uuid: 29714912-0d1e-4573-8fb3-76951ed00a6c
# label: 
# description:
# 
# 
# type: uuid: 97682a19-c1c0-40e8-89ce-b9ccadc8d931 (pk: 34696)
# pk: 34696
# linkname: parameters
# uuid: 97682a19-c1c0-40e8-89ce-b9ccadc8d931
# label: 
# description:
# 
# 
# type: uuid: 661c999b-0288-413d-905c-86f972b3b4bf (pk: 34695)
# pk: 34695
# linkname: settings
# uuid: 661c999b-0288-413d-905c-86f972b3b4bf
# label: 
# description:
# 
# 
# type: uuid: fb138901-eaaf-4fad-94cb-e8cca79f910f (pk: 34646)
# pk: 34646
# linkname: structure
# uuid: fb138901-eaaf-4fad-94cb-e8cca79f910f
# label: 
# description:
# 
# 
# type: uuid: 731ebef7-8521-4b78-9cee-ba2607cd5d92 (pk: 852)
# pk: 852
# linkname: pseudo__Fe
# uuid: 731ebef7-8521-4b78-9cee-ba2607cd5d92
# label: C19
# description:
# 
# END OF HEADER
%BLOCK LATTICE_CART
     -1.4300000000       1.4300000000       1.4300000000
      1.4300000000      -1.4300000000       1.4300000000
      1.4300000000       1.4300000000      -1.4300000000
%ENDBLOCK LATTICE_CART
%BLOCK POSITIONS_ABS
Fe                       0.0000000000       0.0000000000       0.0000000000 SPIN=5.000 
%ENDBLOCK POSITIONS_ABS
kpoints_mp_grid     : 13 13 13
symmetry_generate   : True
%BLOCK SPECIES_POT
Fe    C19
%ENDBLOCK SPECIES_POT