##### Generated by aiida_castep 16:43:53 22/03/2022 GMT #####
#         author: Bonan Zhu (bz240@cam.ac.uk)
# # AiiDA User: Alp Samli (asamli1998@gmail.com)
# AiiDA profile: alp
# Information of the calculation node
# label: 
# description:
# 
## Information of input nodes used:
# 
# type: uuid: d692db33-2b6a-4fe5-968e-37505d85b53a (pk: 20580)
# pk: 20580
# linkname: kpoints
# uuid: d692db33-2b6a-4fe5-968e-37505d85b53a
# label: 
# description:
# 
# 
# type: uuid: f2554b90-af83-4bee-95c5-909efde1fe1f (pk: 20582)
# pk: 20582
# linkname: parameters
# uuid: f2554b90-af83-4bee-95c5-909efde1fe1f
# label: 
# description:
# 
# 
# type: uuid: 33c2b212-f0e9-413b-8899-3776da11b5a6 (pk: 20581)
# pk: 20581
# linkname: settings
# uuid: 33c2b212-f0e9-413b-8899-3776da11b5a6
# label: 
# description:
# 
# 
# type: uuid: 4cecd34e-30cb-45d0-9ec3-6297e316dd9b (pk: 20533)
# pk: 20533
# linkname: structure
# uuid: 4cecd34e-30cb-45d0-9ec3-6297e316dd9b
# label: 
# description:
# 
# 
# type: uuid: 731ebef7-8521-4b78-9cee-ba2607cd5d92 (pk: 852)
# pk: 852
# linkname: pseudo__Fe
# uuid: 731ebef7-8521-4b78-9cee-ba2607cd5d92
# label: C19
# description:
# 
# END OF HEADER
%BLOCK LATTICE_CART
     -1.4300000000       1.4300000000       1.4300000000
      1.4300000000      -1.4300000000       1.4300000000
      1.4300000000       1.4300000000      -1.4300000000
%ENDBLOCK LATTICE_CART
%BLOCK POSITIONS_ABS
Fe                       0.0000000000       0.0000000000       0.0000000000 SPIN=5.000 
%ENDBLOCK POSITIONS_ABS
kpoints_mp_grid     : 17 17 17
symmetry_generate   : True
%BLOCK SPECIES_POT
Fe    C19
%ENDBLOCK SPECIES_POT
