##### Generated by aiida_castep 09:59:46 02/11/2023 GMT #####
#         author: Bonan Zhu (zhubonan@outlook.com)
# # AiiDA User: Alp Samli (asamli1998@gmail.com)
# AiiDA profile: alp
# Information of the calculation node
# label: 
# description:
# 
## Information of input nodes used:
# 
# type: uuid: d060946e-e013-45ce-8f8e-a5416e6c263b (pk: 157082)
# pk: 157082
# linkname: kpoints
# uuid: d060946e-e013-45ce-8f8e-a5416e6c263b
# label: 
# description:
# 
# 
# type: uuid: 5cb2edb7-ade1-45c4-ad7d-8be0528434fe (pk: 157084)
# pk: 157084
# linkname: parameters
# uuid: 5cb2edb7-ade1-45c4-ad7d-8be0528434fe
# label: 
# description:
# 
# 
# type: uuid: bce46e37-978b-4a26-b2f5-25da246b5f5c (pk: 157083)
# pk: 157083
# linkname: settings
# uuid: bce46e37-978b-4a26-b2f5-25da246b5f5c
# label: 
# description:
# 
# 
# type: uuid: 8356a889-e237-4127-8fb2-65b279fd1dde (pk: 156881)
# pk: 156881
# linkname: structure
# uuid: 8356a889-e237-4127-8fb2-65b279fd1dde
# label: 
# description:
# 
# 
# type: uuid: 731ebef7-8521-4b78-9cee-ba2607cd5d92 (pk: 852)
# pk: 852
# linkname: pseudo__Zr
# uuid: 731ebef7-8521-4b78-9cee-ba2607cd5d92
# label: C19
# description:
# 
# END OF HEADER
%BLOCK LATTICE_CART
      1.6196160000      -2.8052570000       0.0000000000
      1.6196160000       2.8052570000       0.0000000000
      0.0000000000       0.0000000000       5.1722200000
%ENDBLOCK LATTICE_CART
%BLOCK POSITIONS_ABS
Zr                       1.6196160000       0.9350875368       1.2930550000
Zr                       1.6196160000      -0.9350875368       3.8791650000
%ENDBLOCK POSITIONS_ABS
kpoints_mp_grid     : 8 8 4
symmetry_generate   : True
%BLOCK SPECIES_POT
Zr    C19
%ENDBLOCK SPECIES_POT