##### Generated by aiida_castep 07:07:37 26/08/2022 BST #####
#         author: Bonan Zhu (zhubonan@outlook.com)
# # AiiDA User: Alp Samli (asamli1998@gmail.com)
# AiiDA profile: alp
# Information of the calculation node
# label: 
# description:
# 
## Information of input nodes used:
# 
# type: uuid: c921d8d2-a28c-4d55-9f49-f78e7d751584 (pk: 37028)
# pk: 37028
# linkname: kpoints
# uuid: c921d8d2-a28c-4d55-9f49-f78e7d751584
# label: 
# description:
# 
# 
# type: uuid: 29df4469-8fee-430d-8ca0-5e26e5ed7218 (pk: 37030)
# pk: 37030
# linkname: parameters
# uuid: 29df4469-8fee-430d-8ca0-5e26e5ed7218
# label: 
# description:
# 
# 
# type: uuid: 52238b1e-0fed-4c28-a317-771d5d152a7b (pk: 37029)
# pk: 37029
# linkname: settings
# uuid: 52238b1e-0fed-4c28-a317-771d5d152a7b
# label: 
# description:
# 
# 
# type: uuid: 723cd2df-939a-405c-ad6d-e42b9d0e87e6 (pk: 37008)
# pk: 37008
# linkname: structure
# uuid: 723cd2df-939a-405c-ad6d-e42b9d0e87e6
# label: 
# description:
# 
# 
# type: uuid: 731ebef7-8521-4b78-9cee-ba2607cd5d92 (pk: 852)
# pk: 852
# linkname: pseudo__O
# uuid: 731ebef7-8521-4b78-9cee-ba2607cd5d92
# label: C19
# description:
# 
# 
# type: uuid: 731ebef7-8521-4b78-9cee-ba2607cd5d92 (pk: 852)
# pk: 852
# linkname: pseudo__Zr
# uuid: 731ebef7-8521-4b78-9cee-ba2607cd5d92
# label: C19
# description:
# 
# END OF HEADER
%BLOCK LATTICE_CART
      4.5941000000       0.0000000000       0.0000000000
      0.0000000000       4.5941000000       0.0000000000
      0.0000000000       0.0000000000       2.9589000000
%ENDBLOCK LATTICE_CART
%BLOCK POSITIONS_ABS
Zr                       0.0000000000       0.0000000000       0.0000000000
Zr                       2.2970500000       2.2970500000       1.4794500000
O                        1.4044163700       1.4044163700       0.0000000000
O                        3.7014663700       0.8926336300       1.4794500000
O                        0.8926336300       3.7014663700       1.4794500000
O                        3.1896836300       3.1896836300       0.0000000000
%ENDBLOCK POSITIONS_ABS
kpoints_mp_grid     : 3 3 5
symmetry_generate   : True
%BLOCK SPECIES_POT
Zr    C19
O     C19
%ENDBLOCK SPECIES_POT