##### Generated by aiida_castep 16:43:54 22/03/2022 GMT #####
#         author: Bonan Zhu (bz240@cam.ac.uk)
# # AiiDA User: Alp Samli (asamli1998@gmail.com)
# AiiDA profile: alp
# Information of the calculation node
# label: 
# description:
# 
## Information of input nodes used:
# 
# type: uuid: eaf98136-e271-4d39-90e1-69dddbbf7677 (pk: 20608)
# pk: 20608
# linkname: kpoints
# uuid: eaf98136-e271-4d39-90e1-69dddbbf7677
# label: 
# description:
# 
# 
# type: uuid: 16e70fd6-18c9-42ad-8c8e-18f0b4cf54cc (pk: 20610)
# pk: 20610
# linkname: parameters
# uuid: 16e70fd6-18c9-42ad-8c8e-18f0b4cf54cc
# label: 
# description:
# 
# 
# type: uuid: c7f7222e-30ff-44f8-9d9f-20bc178c40d6 (pk: 20609)
# pk: 20609
# linkname: settings
# uuid: c7f7222e-30ff-44f8-9d9f-20bc178c40d6
# label: 
# description:
# 
# 
# type: uuid: 950c1e31-3f91-4f0e-a33d-54a61bf17447 (pk: 20547)
# pk: 20547
# linkname: structure
# uuid: 950c1e31-3f91-4f0e-a33d-54a61bf17447
# label: 
# description:
# 
# 
# type: uuid: 731ebef7-8521-4b78-9cee-ba2607cd5d92 (pk: 852)
# pk: 852
# linkname: pseudo__Fe
# uuid: 731ebef7-8521-4b78-9cee-ba2607cd5d92
# label: C19
# description:
# 
# END OF HEADER
%BLOCK LATTICE_CART
     -1.4300000000       1.4300000000       1.4300000000
      2.8600000000       2.8600000000       0.0000000000
     -1.4300000000       1.4300000000      -4.2900000000
%ENDBLOCK LATTICE_CART
%BLOCK POSITIONS_ABS
Fe                      -1.4300000000       1.4300000000      -1.4300000000 SPIN=-5.000 
Fe                      -0.0000000000       2.8600000000      -2.8600000000 SPIN=-5.000 
Fe                       0.0000000000       0.0000000000       0.0000000000 SPIN=5.000 
Fe                      -0.0000000000       2.8600000000       0.0000000000 SPIN=5.000 
%ENDBLOCK POSITIONS_ABS
kpoints_mp_grid     : 14 9 8
symmetry_generate   : True
%BLOCK SPECIES_POT
Fe    C19
%ENDBLOCK SPECIES_POT
