##### Generated by aiida_castep 15:27:51 02/11/2023 GMT #####
#         author: Bonan Zhu (zhubonan@outlook.com)
# # AiiDA User: Alp Samli (asamli1998@gmail.com)
# AiiDA profile: alp
# Information of the calculation node
# label: 
# description:
# 
## Information of input nodes used:
# 
# type: uuid: dcbe12b5-af5a-475b-a289-41804c49d612 (pk: 157328)
# pk: 157328
# linkname: kpoints
# uuid: dcbe12b5-af5a-475b-a289-41804c49d612
# label: 
# description:
# 
# 
# type: uuid: 85341226-7673-4744-9a0b-b6665d9feeeb (pk: 157364)
# pk: 157364
# linkname: parameters
# uuid: 85341226-7673-4744-9a0b-b6665d9feeeb
# label: 
# description:
# 
# 
# type: uuid: 81442c70-10ee-4a23-9389-a83605471a08 (pk: 157363)
# pk: 157363
# linkname: settings
# uuid: 81442c70-10ee-4a23-9389-a83605471a08
# label: 
# description:
# 
# 
# type: uuid: 8356a889-e237-4127-8fb2-65b279fd1dde (pk: 156881)
# pk: 156881
# linkname: structure
# uuid: 8356a889-e237-4127-8fb2-65b279fd1dde
# label: 
# description:
# 
# 
# type: uuid: 731ebef7-8521-4b78-9cee-ba2607cd5d92 (pk: 852)
# pk: 852
# linkname: pseudo__Zr
# uuid: 731ebef7-8521-4b78-9cee-ba2607cd5d92
# label: C19
# description:
# 
# END OF HEADER
%BLOCK LATTICE_CART
      1.6196160000      -2.8052570000       0.0000000000
      1.6196160000       2.8052570000       0.0000000000
      0.0000000000       0.0000000000       5.1722200000
%ENDBLOCK LATTICE_CART
%BLOCK POSITIONS_ABS
Zr                       1.6196160000       0.9350875368       1.2930550000
Zr                       1.6196160000      -0.9350875368       3.8791650000
%ENDBLOCK POSITIONS_ABS
kpoints_mp_grid     : 1 1 1
symmetry_generate   : True
%BLOCK SPECIES_POT
Zr    C19
%ENDBLOCK SPECIES_POT