##### Generated by aiida_castep 09:58:38 02/11/2023 GMT #####
#         author: Bonan Zhu (zhubonan@outlook.com)
# # AiiDA User: Alp Samli (asamli1998@gmail.com)
# AiiDA profile: alp
# Information of the calculation node
# label: 
# description:
# 
## Information of input nodes used:
# 
# type: uuid: 145dd900-7bd7-4777-9bf9-19ab327891de (pk: 156990)
# pk: 156990
# linkname: kpoints
# uuid: 145dd900-7bd7-4777-9bf9-19ab327891de
# label: 
# description:
# 
# 
# type: uuid: 82f352a3-f13b-4cad-a7c2-85cddd8a6fbf (pk: 156992)
# pk: 156992
# linkname: parameters
# uuid: 82f352a3-f13b-4cad-a7c2-85cddd8a6fbf
# label: 
# description:
# 
# 
# type: uuid: 99676321-cc1a-4f8b-9615-8fa24cc61395 (pk: 156991)
# pk: 156991
# linkname: settings
# uuid: 99676321-cc1a-4f8b-9615-8fa24cc61395
# label: 
# description:
# 
# 
# type: uuid: c8f84600-8dda-4992-8ed9-2b63a7d0211d (pk: 156878)
# pk: 156878
# linkname: structure
# uuid: c8f84600-8dda-4992-8ed9-2b63a7d0211d
# label: 
# description:
# 
# 
# type: uuid: 731ebef7-8521-4b78-9cee-ba2607cd5d92 (pk: 852)
# pk: 852
# linkname: pseudo__Ti
# uuid: 731ebef7-8521-4b78-9cee-ba2607cd5d92
# label: C19
# description:
# 
# END OF HEADER
%BLOCK LATTICE_CART
      2.2884270000      -3.9636730000       0.0000000000
      2.2884270000       3.9636730000       0.0000000000
      0.0000000000       0.0000000000       2.8286830000
%ENDBLOCK LATTICE_CART
%BLOCK POSITIONS_ABS
Ti                       0.0000000000       0.0000000000       0.0000000000
Ti                       2.2884270000       1.3212269758       1.4143415000
Ti                       2.2884270000      -1.3212269758       1.4143415000
%ENDBLOCK POSITIONS_ABS
kpoints_mp_grid     : 3 3 4
symmetry_generate   : True
%BLOCK SPECIES_POT
Ti    C19
%ENDBLOCK SPECIES_POT