##### Generated by aiida_castep 16:11:11 28/02/2022 GMT #####
#         author: Bonan Zhu (bz240@cam.ac.uk)
# # AiiDA User: Alp Samli (asamli1998@gmail.com)
# AiiDA profile: alp
# Information of the calculation node
# label: 
# description:
# 
## Information of input nodes used:
# 
# type: uuid: 7b849b61-3fc0-45ec-85e2-8f86f8ae2cb2 (pk: 15908)
# pk: 15908
# linkname: kpoints
# uuid: 7b849b61-3fc0-45ec-85e2-8f86f8ae2cb2
# label: 
# description:
# 
# 
# type: uuid: d2b469ee-a6bd-460d-91f5-81ed474c0dd7 (pk: 15910)
# pk: 15910
# linkname: parameters
# uuid: d2b469ee-a6bd-460d-91f5-81ed474c0dd7
# label: 
# description:
# 
# 
# type: uuid: ff73e3e2-7d39-489f-94c0-d9f11cb93ecc (pk: 15909)
# pk: 15909
# linkname: settings
# uuid: ff73e3e2-7d39-489f-94c0-d9f11cb93ecc
# label: 
# description:
# 
# 
# type: uuid: f4efd56d-5b48-42ad-a55f-3b988e0b5e26 (pk: 15780)
# pk: 15780
# linkname: structure
# uuid: f4efd56d-5b48-42ad-a55f-3b988e0b5e26
# label: 
# description:
# 
# 
# type: uuid: 731ebef7-8521-4b78-9cee-ba2607cd5d92 (pk: 852)
# pk: 852
# linkname: pseudo__Si
# uuid: 731ebef7-8521-4b78-9cee-ba2607cd5d92
# label: C19
# description:
# 
# END OF HEADER
%BLOCK LATTICE_CART
      0.0000000000       2.7150000000       2.7150000000
      2.7150000000       0.0000000000       2.7150000000
      2.7150000000       2.7150000000       0.0000000000
%ENDBLOCK LATTICE_CART
%BLOCK POSITIONS_ABS
Si                       0.0000000000       0.0000000000       0.0000000000
Si                       1.3575000000       1.3575000000       1.3575000000
%ENDBLOCK POSITIONS_ABS
kpoints_mp_grid     : 4 4 4
symmetry_generate   : True
%BLOCK SPECIES_POT
Si    C19
%ENDBLOCK SPECIES_POT
