##### Generated by aiida_castep 15:44:09 20/01/2022 GMT #####
#         author: Bonan Zhu (bz240@cam.ac.uk)
# # AiiDA User: Alp Samli (asamli1998@gmail.com)
# AiiDA profile: alp
# Information of the calculation node
# label: 
# description:
# 
## Information of input nodes used:
# 
# type: uuid: b7d9748f-e42e-44ba-a1a8-70a25452b6ff (pk: 6266)
# pk: 6266
# linkname: structure
# uuid: b7d9748f-e42e-44ba-a1a8-70a25452b6ff
# label: 
# description:
# 
# 
# type: uuid: 98a1a267-9fc8-4921-b4bf-a2836f27ca08 (pk: 6393)
# pk: 6393
# linkname: settings
# uuid: 98a1a267-9fc8-4921-b4bf-a2836f27ca08
# label: 
# description:
# 
# 
# type: uuid: 13bcb465-cdbe-4e79-89e8-514e494d40b5 (pk: 6394)
# pk: 6394
# linkname: parameters
# uuid: 13bcb465-cdbe-4e79-89e8-514e494d40b5
# label: 
# description:
# 
# 
# type: uuid: d9e16913-961f-4600-8944-fa2b16190b48 (pk: 6392)
# pk: 6392
# linkname: kpoints
# uuid: d9e16913-961f-4600-8944-fa2b16190b48
# label: 
# description:
# 
# 
# type: uuid: 731ebef7-8521-4b78-9cee-ba2607cd5d92 (pk: 852)
# pk: 852
# linkname: pseudo__Si
# uuid: 731ebef7-8521-4b78-9cee-ba2607cd5d92
# label: C19
# description:
# 
# END OF HEADER
%BLOCK LATTICE_CART
      0.0000000000       2.7150000000       2.7150000000
      2.7150000000       0.0000000000       2.7150000000
      2.7150000000       2.7150000000       0.0000000000
%ENDBLOCK LATTICE_CART
%BLOCK POSITIONS_ABS
Si                       0.0000000000       0.0000000000       0.0000000000
Si                       1.3575000000       1.3575000000       1.3575000000
%ENDBLOCK POSITIONS_ABS
kpoints_mp_grid     : 4 4 4
symmetry_generate   : True
%BLOCK SPECIES_POT
Si    C19
%ENDBLOCK SPECIES_POT
