##### Generated by aiida_castep 16:34:25 14/03/2022 GMT #####
#         author: Bonan Zhu (bz240@cam.ac.uk)
# # AiiDA User: Alp Samli (asamli1998@gmail.com)
# AiiDA profile: alp
# Information of the calculation node
# label: 
# description:
# 
## Information of input nodes used:
# 
# type: uuid: 5a5c911f-af8d-41a4-a96b-cca9c29a0f2b (pk: 17892)
# pk: 17892
# linkname: kpoints
# uuid: 5a5c911f-af8d-41a4-a96b-cca9c29a0f2b
# label: 
# description:
# 
# 
# type: uuid: 55bfd5d6-6e08-46ef-b1e5-f9fac45999d6 (pk: 17894)
# pk: 17894
# linkname: parameters
# uuid: 55bfd5d6-6e08-46ef-b1e5-f9fac45999d6
# label: 
# description:
# 
# 
# type: uuid: 781b38bb-0370-4745-ad0e-a93c7079745f (pk: 17893)
# pk: 17893
# linkname: settings
# uuid: 781b38bb-0370-4745-ad0e-a93c7079745f
# label: 
# description:
# 
# 
# type: uuid: 94464b3b-ba45-4e8c-95db-354227f1bc41 (pk: 17764)
# pk: 17764
# linkname: structure
# uuid: 94464b3b-ba45-4e8c-95db-354227f1bc41
# label: 
# description:
# 
# 
# type: uuid: 731ebef7-8521-4b78-9cee-ba2607cd5d92 (pk: 852)
# pk: 852
# linkname: pseudo__Si
# uuid: 731ebef7-8521-4b78-9cee-ba2607cd5d92
# label: C19
# description:
# 
# END OF HEADER
%BLOCK LATTICE_CART
      0.0000000000       2.7150000000       2.7150000000
      2.7150000000       0.0000000000       2.7150000000
      2.7150000000       2.7150000000       0.0000000000
%ENDBLOCK LATTICE_CART
%BLOCK POSITIONS_ABS
Si                       0.0000000000       0.0000000000       0.0000000000
Si                       1.3575000000       1.3575000000       1.3575000000
%ENDBLOCK POSITIONS_ABS
kpoints_mp_grid     : 4 4 4
symmetry_generate   : True
%BLOCK SPECIES_POT
Si    C19
%ENDBLOCK SPECIES_POT
