##### Generated by aiida_castep 16:03:26 23/02/2022 GMT #####
#         author: Bonan Zhu (bz240@cam.ac.uk)
# # AiiDA User: Alp Samli (asamli1998@gmail.com)
# AiiDA profile: alp
# Information of the calculation node
# label: 
# description:
# 
## Information of input nodes used:
# 
# type: uuid: de52acf0-5d03-4afa-95bc-91163681a1ab (pk: 13972)
# pk: 13972
# linkname: kpoints
# uuid: de52acf0-5d03-4afa-95bc-91163681a1ab
# label: 
# description:
# 
# 
# type: uuid: fa68d21f-243f-4336-bebe-9542eead633f (pk: 13974)
# pk: 13974
# linkname: parameters
# uuid: fa68d21f-243f-4336-bebe-9542eead633f
# label: 
# description:
# 
# 
# type: uuid: cdcda838-e777-4740-8d54-7d44ef2d7365 (pk: 13973)
# pk: 13973
# linkname: settings
# uuid: cdcda838-e777-4740-8d54-7d44ef2d7365
# label: 
# description:
# 
# 
# type: uuid: 9dacdc07-1379-4acf-adae-d5eff25e026b (pk: 13913)
# pk: 13913
# linkname: structure
# uuid: 9dacdc07-1379-4acf-adae-d5eff25e026b
# label: 
# description:
# 
# 
# type: uuid: 731ebef7-8521-4b78-9cee-ba2607cd5d92 (pk: 852)
# pk: 852
# linkname: pseudo__Si
# uuid: 731ebef7-8521-4b78-9cee-ba2607cd5d92
# label: C19
# description:
# 
# END OF HEADER
%BLOCK LATTICE_CART
      0.0000000000       2.7150000000       2.7150000000
      2.7150000000       0.0000000000       2.7150000000
      2.7150000000       2.7150000000       0.0000000000
%ENDBLOCK LATTICE_CART
%BLOCK POSITIONS_ABS
Si                       0.0000000000       0.0000000000       0.0000000000
Si                       1.3575000000       1.3575000000       1.3575000000
%ENDBLOCK POSITIONS_ABS
kpoints_mp_grid     : 7 7 7
symmetry_generate   : True
%BLOCK SPECIES_POT
Si    C19
%ENDBLOCK SPECIES_POT
