##### Generated by aiida_castep 16:34:26 14/03/2022 GMT #####
#         author: Bonan Zhu (bz240@cam.ac.uk)
# # AiiDA User: Alp Samli (asamli1998@gmail.com)
# AiiDA profile: alp
# Information of the calculation node
# label: 
# description:
# 
## Information of input nodes used:
# 
# type: uuid: a7ea7036-5d62-4c73-822f-be5edf66e9b0 (pk: 17908)
# pk: 17908
# linkname: kpoints
# uuid: a7ea7036-5d62-4c73-822f-be5edf66e9b0
# label: 
# description:
# 
# 
# type: uuid: 56553172-b4ff-4463-8211-b999b9d709f1 (pk: 17910)
# pk: 17910
# linkname: parameters
# uuid: 56553172-b4ff-4463-8211-b999b9d709f1
# label: 
# description:
# 
# 
# type: uuid: e3faeff7-5fb6-4764-b913-86a3ef8941db (pk: 17909)
# pk: 17909
# linkname: settings
# uuid: e3faeff7-5fb6-4764-b913-86a3ef8941db
# label: 
# description:
# 
# 
# type: uuid: 94464b3b-ba45-4e8c-95db-354227f1bc41 (pk: 17764)
# pk: 17764
# linkname: structure
# uuid: 94464b3b-ba45-4e8c-95db-354227f1bc41
# label: 
# description:
# 
# 
# type: uuid: 731ebef7-8521-4b78-9cee-ba2607cd5d92 (pk: 852)
# pk: 852
# linkname: pseudo__Si
# uuid: 731ebef7-8521-4b78-9cee-ba2607cd5d92
# label: C19
# description:
# 
# END OF HEADER
%BLOCK LATTICE_CART
      0.0000000000       2.7150000000       2.7150000000
      2.7150000000       0.0000000000       2.7150000000
      2.7150000000       2.7150000000       0.0000000000
%ENDBLOCK LATTICE_CART
%BLOCK POSITIONS_ABS
Si                       0.0000000000       0.0000000000       0.0000000000
Si                       1.3575000000       1.3575000000       1.3575000000
%ENDBLOCK POSITIONS_ABS
kpoints_mp_grid     : 7 7 7
symmetry_generate   : True
%BLOCK SPECIES_POT
Si    C19
%ENDBLOCK SPECIES_POT
