##### Generated by aiida_castep 15:44:09 20/01/2022 GMT #####
#         author: Bonan Zhu (bz240@cam.ac.uk)
# # AiiDA User: Alp Samli (asamli1998@gmail.com)
# AiiDA profile: alp
# Information of the calculation node
# label: 
# description:
# 
## Information of input nodes used:
# 
# type: uuid: b7d9748f-e42e-44ba-a1a8-70a25452b6ff (pk: 6266)
# pk: 6266
# linkname: structure
# uuid: b7d9748f-e42e-44ba-a1a8-70a25452b6ff
# label: 
# description:
# 
# 
# type: uuid: d4bc3e4d-ee39-4fef-97ca-5a827334d2fd (pk: 6409)
# pk: 6409
# linkname: settings
# uuid: d4bc3e4d-ee39-4fef-97ca-5a827334d2fd
# label: 
# description:
# 
# 
# type: uuid: d7292969-8c85-49ae-af79-5620b320848f (pk: 6410)
# pk: 6410
# linkname: parameters
# uuid: d7292969-8c85-49ae-af79-5620b320848f
# label: 
# description:
# 
# 
# type: uuid: 04ab36cb-075c-4ba0-8e2b-73e6964d9b39 (pk: 6408)
# pk: 6408
# linkname: kpoints
# uuid: 04ab36cb-075c-4ba0-8e2b-73e6964d9b39
# label: 
# description:
# 
# 
# type: uuid: 731ebef7-8521-4b78-9cee-ba2607cd5d92 (pk: 852)
# pk: 852
# linkname: pseudo__Si
# uuid: 731ebef7-8521-4b78-9cee-ba2607cd5d92
# label: C19
# description:
# 
# END OF HEADER
%BLOCK LATTICE_CART
      0.0000000000       2.7150000000       2.7150000000
      2.7150000000       0.0000000000       2.7150000000
      2.7150000000       2.7150000000       0.0000000000
%ENDBLOCK LATTICE_CART
%BLOCK POSITIONS_ABS
Si                       0.0000000000       0.0000000000       0.0000000000
Si                       1.3575000000       1.3575000000       1.3575000000
%ENDBLOCK POSITIONS_ABS
kpoints_mp_grid     : 7 7 7
symmetry_generate   : True
%BLOCK SPECIES_POT
Si    C19
%ENDBLOCK SPECIES_POT
