##### Generated by aiida_castep 16:11:11 28/02/2022 GMT #####
#         author: Bonan Zhu (bz240@cam.ac.uk)
# # AiiDA User: Alp Samli (asamli1998@gmail.com)
# AiiDA profile: alp
# Information of the calculation node
# label: 
# description:
# 
## Information of input nodes used:
# 
# type: uuid: 5fce207f-1faf-4b40-8c95-1dd27d7061e9 (pk: 15924)
# pk: 15924
# linkname: kpoints
# uuid: 5fce207f-1faf-4b40-8c95-1dd27d7061e9
# label: 
# description:
# 
# 
# type: uuid: fcd04e8a-6485-4547-ac58-a435cb16b4a1 (pk: 15926)
# pk: 15926
# linkname: parameters
# uuid: fcd04e8a-6485-4547-ac58-a435cb16b4a1
# label: 
# description:
# 
# 
# type: uuid: f0f5b9c4-c280-4aaf-a135-021c376b564d (pk: 15925)
# pk: 15925
# linkname: settings
# uuid: f0f5b9c4-c280-4aaf-a135-021c376b564d
# label: 
# description:
# 
# 
# type: uuid: f4efd56d-5b48-42ad-a55f-3b988e0b5e26 (pk: 15780)
# pk: 15780
# linkname: structure
# uuid: f4efd56d-5b48-42ad-a55f-3b988e0b5e26
# label: 
# description:
# 
# 
# type: uuid: 731ebef7-8521-4b78-9cee-ba2607cd5d92 (pk: 852)
# pk: 852
# linkname: pseudo__Si
# uuid: 731ebef7-8521-4b78-9cee-ba2607cd5d92
# label: C19
# description:
# 
# END OF HEADER
%BLOCK LATTICE_CART
      0.0000000000       2.7150000000       2.7150000000
      2.7150000000       0.0000000000       2.7150000000
      2.7150000000       2.7150000000       0.0000000000
%ENDBLOCK LATTICE_CART
%BLOCK POSITIONS_ABS
Si                       0.0000000000       0.0000000000       0.0000000000
Si                       1.3575000000       1.3575000000       1.3575000000
%ENDBLOCK POSITIONS_ABS
kpoints_mp_grid     : 7 7 7
symmetry_generate   : True
%BLOCK SPECIES_POT
Si    C19
%ENDBLOCK SPECIES_POT
