##### Generated by aiida_castep 10:58:52 03/02/2022 GMT #####
#         author: Bonan Zhu (bz240@cam.ac.uk)
# # AiiDA User: Alp Samli (asamli1998@gmail.com)
# AiiDA profile: alp
# Information of the calculation node
# label: 
# description:
# 
## Information of input nodes used:
# 
# type: uuid: 6bd227c5-de4d-4c8b-a0a5-85814cd06553 (pk: 9826)
# pk: 9826
# linkname: kpoints
# uuid: 6bd227c5-de4d-4c8b-a0a5-85814cd06553
# label: 
# description:
# 
# 
# type: uuid: 71b2eb60-f62d-4811-a508-81e235e9af11 (pk: 9828)
# pk: 9828
# linkname: parameters
# uuid: 71b2eb60-f62d-4811-a508-81e235e9af11
# label: 
# description:
# 
# 
# type: uuid: 5f8085c5-cafc-4355-bbc1-488a7d155f5f (pk: 9827)
# pk: 9827
# linkname: settings
# uuid: 5f8085c5-cafc-4355-bbc1-488a7d155f5f
# label: 
# description:
# 
# 
# type: uuid: e997cdba-ee76-4e0e-81ea-a833b8c4ef2f (pk: 9760)
# pk: 9760
# linkname: structure
# uuid: e997cdba-ee76-4e0e-81ea-a833b8c4ef2f
# label: 
# description:
# 
# 
# type: uuid: 731ebef7-8521-4b78-9cee-ba2607cd5d92 (pk: 852)
# pk: 852
# linkname: pseudo__Si
# uuid: 731ebef7-8521-4b78-9cee-ba2607cd5d92
# label: C19
# description:
# 
# END OF HEADER
%BLOCK LATTICE_CART
      0.0000000000       2.7150000000       2.7150000000
      2.7150000000       0.0000000000       2.7150000000
      2.7150000000       2.7150000000       0.0000000000
%ENDBLOCK LATTICE_CART
%BLOCK POSITIONS_ABS
Si                       0.0000000000       0.0000000000       0.0000000000
Si                       1.3575000000       1.3575000000       1.3575000000
%ENDBLOCK POSITIONS_ABS
kpoints_mp_grid     : 4 4 4
symmetry_generate   : True
%BLOCK SPECIES_POT
Si    C19
%ENDBLOCK SPECIES_POT
