##### Generated by aiida_castep 16:33:56 14/03/2022 GMT #####
#         author: Bonan Zhu (bz240@cam.ac.uk)
# # AiiDA User: Alp Samli (asamli1998@gmail.com)
# AiiDA profile: alp
# Information of the calculation node
# label: 
# description:
# 
## Information of input nodes used:
# 
# type: uuid: 1c49ec36-aa25-4d0c-ab3f-3c8d08d8b7c9 (pk: 17830)
# pk: 17830
# linkname: kpoints
# uuid: 1c49ec36-aa25-4d0c-ab3f-3c8d08d8b7c9
# label: 
# description:
# 
# 
# type: uuid: 69f5e721-0a33-4e31-b9f3-1d2679fbf7f7 (pk: 17832)
# pk: 17832
# linkname: parameters
# uuid: 69f5e721-0a33-4e31-b9f3-1d2679fbf7f7
# label: 
# description:
# 
# 
# type: uuid: ba9ba4d7-b53a-4c7b-a00e-2e5a50eb9907 (pk: 17831)
# pk: 17831
# linkname: settings
# uuid: ba9ba4d7-b53a-4c7b-a00e-2e5a50eb9907
# label: 
# description:
# 
# 
# type: uuid: 94464b3b-ba45-4e8c-95db-354227f1bc41 (pk: 17764)
# pk: 17764
# linkname: structure
# uuid: 94464b3b-ba45-4e8c-95db-354227f1bc41
# label: 
# description:
# 
# 
# type: uuid: 731ebef7-8521-4b78-9cee-ba2607cd5d92 (pk: 852)
# pk: 852
# linkname: pseudo__Si
# uuid: 731ebef7-8521-4b78-9cee-ba2607cd5d92
# label: C19
# description:
# 
# END OF HEADER
%BLOCK LATTICE_CART
      0.0000000000       2.7150000000       2.7150000000
      2.7150000000       0.0000000000       2.7150000000
      2.7150000000       2.7150000000       0.0000000000
%ENDBLOCK LATTICE_CART
%BLOCK POSITIONS_ABS
Si                       0.0000000000       0.0000000000       0.0000000000
Si                       1.3575000000       1.3575000000       1.3575000000
%ENDBLOCK POSITIONS_ABS
kpoints_mp_grid     : 4 4 4
symmetry_generate   : True
%BLOCK SPECIES_POT
Si    C19
%ENDBLOCK SPECIES_POT
