##### Generated by aiida_castep 09:58:47 02/11/2023 GMT #####
#         author: Bonan Zhu (zhubonan@outlook.com)
# # AiiDA User: Alp Samli (asamli1998@gmail.com)
# AiiDA profile: alp
# Information of the calculation node
# label: 
# description:
# 
## Information of input nodes used:
# 
# type: uuid: d85a7652-4c77-4b41-b544-96117021a2b4 (pk: 157002)
# pk: 157002
# linkname: kpoints
# uuid: d85a7652-4c77-4b41-b544-96117021a2b4
# label: 
# description:
# 
# 
# type: uuid: 0a1005f1-d300-4dc0-9fbe-e26e551b61f5 (pk: 157004)
# pk: 157004
# linkname: parameters
# uuid: 0a1005f1-d300-4dc0-9fbe-e26e551b61f5
# label: 
# description:
# 
# 
# type: uuid: 8ea0056a-6039-4b77-b2ca-4eb6f31df075 (pk: 157003)
# pk: 157003
# linkname: settings
# uuid: 8ea0056a-6039-4b77-b2ca-4eb6f31df075
# label: 
# description:
# 
# 
# type: uuid: c8f84600-8dda-4992-8ed9-2b63a7d0211d (pk: 156878)
# pk: 156878
# linkname: structure
# uuid: c8f84600-8dda-4992-8ed9-2b63a7d0211d
# label: 
# description:
# 
# 
# type: uuid: 731ebef7-8521-4b78-9cee-ba2607cd5d92 (pk: 852)
# pk: 852
# linkname: pseudo__Ti
# uuid: 731ebef7-8521-4b78-9cee-ba2607cd5d92
# label: C19
# description:
# 
# END OF HEADER
%BLOCK LATTICE_CART
      2.2884270000      -3.9636730000       0.0000000000
      2.2884270000       3.9636730000       0.0000000000
      0.0000000000       0.0000000000       2.8286830000
%ENDBLOCK LATTICE_CART
%BLOCK POSITIONS_ABS
Ti                       0.0000000000       0.0000000000       0.0000000000
Ti                       2.2884270000       1.3212269758       1.4143415000
Ti                       2.2884270000      -1.3212269758       1.4143415000
%ENDBLOCK POSITIONS_ABS
kpoints_mp_grid     : 4 4 6
symmetry_generate   : True
%BLOCK SPECIES_POT
Ti    C19
%ENDBLOCK SPECIES_POT