##### Generated by aiida_castep 16:08:01 19/08/2022 BST #####
#         author: Bonan Zhu (zhubonan@outlook.com)
# # AiiDA User: Alp Samli (asamli1998@gmail.com)
# AiiDA profile: alp
# Information of the calculation node
# label: 
# description:
# 
## Information of input nodes used:
# 
# type: uuid: e105d30b-f4d6-4fc1-bf60-ac631af4c132 (pk: 34706)
# pk: 34706
# linkname: kpoints
# uuid: e105d30b-f4d6-4fc1-bf60-ac631af4c132
# label: 
# description:
# 
# 
# type: uuid: 99f3d875-612b-4111-9740-8af0594e843b (pk: 34708)
# pk: 34708
# linkname: parameters
# uuid: 99f3d875-612b-4111-9740-8af0594e843b
# label: 
# description:
# 
# 
# type: uuid: 0590a8bc-c86d-486a-9841-cf122f0aa2e6 (pk: 34707)
# pk: 34707
# linkname: settings
# uuid: 0590a8bc-c86d-486a-9841-cf122f0aa2e6
# label: 
# description:
# 
# 
# type: uuid: e7f495f2-56b4-471c-963c-99d96e159c30 (pk: 34652)
# pk: 34652
# linkname: structure
# uuid: e7f495f2-56b4-471c-963c-99d96e159c30
# label: 
# description:
# 
# 
# type: uuid: 731ebef7-8521-4b78-9cee-ba2607cd5d92 (pk: 852)
# pk: 852
# linkname: pseudo__Fe
# uuid: 731ebef7-8521-4b78-9cee-ba2607cd5d92
# label: C19
# description:
# 
# END OF HEADER
%BLOCK LATTICE_CART
      0.0000000000       2.8600000000       0.0000000000
      2.8600000000       0.0000000000       0.0000000000
      0.0000000000       0.0000000000      -5.7200000000
%ENDBLOCK LATTICE_CART
%BLOCK POSITIONS_ABS
Fe                       0.0000000000       0.0000000000      -2.8600000000 SPIN=-5.000 
Fe                       1.4300000000       1.4300000000      -4.2900000000 SPIN=-5.000 
Fe                       0.0000000000       0.0000000000       0.0000000000 SPIN=5.000 
Fe                       1.4300000000       1.4300000000      -1.4300000000 SPIN=5.000 
%ENDBLOCK POSITIONS_ABS
kpoints_mp_grid     : 9 9 5
symmetry_generate   : True
%BLOCK SPECIES_POT
Fe    C19
%ENDBLOCK SPECIES_POT