##### Generated by aiida_castep 16:43:53 22/03/2022 GMT #####
#         author: Bonan Zhu (bz240@cam.ac.uk)
# # AiiDA User: Alp Samli (asamli1998@gmail.com)
# AiiDA profile: alp
# Information of the calculation node
# label: 
# description:
# 
## Information of input nodes used:
# 
# type: uuid: 6226a213-8284-4a14-956e-32c6c7a4f1d9 (pk: 20592)
# pk: 20592
# linkname: kpoints
# uuid: 6226a213-8284-4a14-956e-32c6c7a4f1d9
# label: 
# description:
# 
# 
# type: uuid: 04bb4a3b-520a-4513-897c-78a12978dc6e (pk: 20594)
# pk: 20594
# linkname: parameters
# uuid: 04bb4a3b-520a-4513-897c-78a12978dc6e
# label: 
# description:
# 
# 
# type: uuid: fcaa13ae-9613-4162-988d-83b250286f97 (pk: 20593)
# pk: 20593
# linkname: settings
# uuid: fcaa13ae-9613-4162-988d-83b250286f97
# label: 
# description:
# 
# 
# type: uuid: 71d8e6c5-3432-4cbf-9f3a-74960221c3ce (pk: 20539)
# pk: 20539
# linkname: structure
# uuid: 71d8e6c5-3432-4cbf-9f3a-74960221c3ce
# label: 
# description:
# 
# 
# type: uuid: 731ebef7-8521-4b78-9cee-ba2607cd5d92 (pk: 852)
# pk: 852
# linkname: pseudo__Fe
# uuid: 731ebef7-8521-4b78-9cee-ba2607cd5d92
# label: C19
# description:
# 
# END OF HEADER
%BLOCK LATTICE_CART
      0.0000000000       2.8600000000       0.0000000000
      2.8600000000       0.0000000000       0.0000000000
      0.0000000000       0.0000000000      -5.7200000000
%ENDBLOCK LATTICE_CART
%BLOCK POSITIONS_ABS
Fe                       0.0000000000       0.0000000000      -2.8600000000 SPIN=-5.000 
Fe                       1.4300000000       1.4300000000      -4.2900000000 SPIN=-5.000 
Fe                       0.0000000000       0.0000000000       0.0000000000 SPIN=5.000 
Fe                       1.4300000000       1.4300000000      -1.4300000000 SPIN=5.000 
%ENDBLOCK POSITIONS_ABS
kpoints_mp_grid     : 12 12 6
symmetry_generate   : True
%BLOCK SPECIES_POT
Fe    C19
%ENDBLOCK SPECIES_POT
